*HEADING
ccxview sample: S8R concrete slab 4 x 4 m, simply supported, 20 kPa
*NODE, NSET=NALL
1, 0, 0, 0
2, 166.667, 0, 0
3, 333.333, 0, 0
4, 500, 0, 0
5, 666.667, 0, 0
6, 833.333, 0, 0
7, 1000, 0, 0
8, 1166.67, 0, 0
9, 1333.33, 0, 0
10, 1500, 0, 0
11, 1666.67, 0, 0
12, 1833.33, 0, 0
13, 2000, 0, 0
14, 2166.67, 0, 0
15, 2333.33, 0, 0
16, 2500, 0, 0
17, 2666.67, 0, 0
18, 2833.33, 0, 0
19, 3000, 0, 0
20, 3166.67, 0, 0
21, 3333.33, 0, 0
22, 3500, 0, 0
23, 3666.67, 0, 0
24, 3833.33, 0, 0
25, 4000, 0, 0
26, 0, 166.667, 0
27, 333.333, 166.667, 0
28, 666.667, 166.667, 0
29, 1000, 166.667, 0
30, 1333.33, 166.667, 0
31, 1666.67, 166.667, 0
32, 2000, 166.667, 0
33, 2333.33, 166.667, 0
34, 2666.67, 166.667, 0
35, 3000, 166.667, 0
36, 3333.33, 166.667, 0
37, 3666.67, 166.667, 0
38, 4000, 166.667, 0
39, 0, 333.333, 0
40, 166.667, 333.333, 0
41, 333.333, 333.333, 0
42, 500, 333.333, 0
43, 666.667, 333.333, 0
44, 833.333, 333.333, 0
45, 1000, 333.333, 0
46, 1166.67, 333.333, 0
47, 1333.33, 333.333, 0
48, 1500, 333.333, 0
49, 1666.67, 333.333, 0
50, 1833.33, 333.333, 0
51, 2000, 333.333, 0
52, 2166.67, 333.333, 0
53, 2333.33, 333.333, 0
54, 2500, 333.333, 0
55, 2666.67, 333.333, 0
56, 2833.33, 333.333, 0
57, 3000, 333.333, 0
58, 3166.67, 333.333, 0
59, 3333.33, 333.333, 0
60, 3500, 333.333, 0
61, 3666.67, 333.333, 0
62, 3833.33, 333.333, 0
63, 4000, 333.333, 0
64, 0, 500, 0
65, 333.333, 500, 0
66, 666.667, 500, 0
67, 1000, 500, 0
68, 1333.33, 500, 0
69, 1666.67, 500, 0
70, 2000, 500, 0
71, 2333.33, 500, 0
72, 2666.67, 500, 0
73, 3000, 500, 0
74, 3333.33, 500, 0
75, 3666.67, 500, 0
76, 4000, 500, 0
77, 0, 666.667, 0
78, 166.667, 666.667, 0
79, 333.333, 666.667, 0
80, 500, 666.667, 0
81, 666.667, 666.667, 0
82, 833.333, 666.667, 0
83, 1000, 666.667, 0
84, 1166.67, 666.667, 0
85, 1333.33, 666.667, 0
86, 1500, 666.667, 0
87, 1666.67, 666.667, 0
88, 1833.33, 666.667, 0
89, 2000, 666.667, 0
90, 2166.67, 666.667, 0
91, 2333.33, 666.667, 0
92, 2500, 666.667, 0
93, 2666.67, 666.667, 0
94, 2833.33, 666.667, 0
95, 3000, 666.667, 0
96, 3166.67, 666.667, 0
97, 3333.33, 666.667, 0
98, 3500, 666.667, 0
99, 3666.67, 666.667, 0
100, 3833.33, 666.667, 0
101, 4000, 666.667, 0
102, 0, 833.333, 0
103, 333.333, 833.333, 0
104, 666.667, 833.333, 0
105, 1000, 833.333, 0
106, 1333.33, 833.333, 0
107, 1666.67, 833.333, 0
108, 2000, 833.333, 0
109, 2333.33, 833.333, 0
110, 2666.67, 833.333, 0
111, 3000, 833.333, 0
112, 3333.33, 833.333, 0
113, 3666.67, 833.333, 0
114, 4000, 833.333, 0
115, 0, 1000, 0
116, 166.667, 1000, 0
117, 333.333, 1000, 0
118, 500, 1000, 0
119, 666.667, 1000, 0
120, 833.333, 1000, 0
121, 1000, 1000, 0
122, 1166.67, 1000, 0
123, 1333.33, 1000, 0
124, 1500, 1000, 0
125, 1666.67, 1000, 0
126, 1833.33, 1000, 0
127, 2000, 1000, 0
128, 2166.67, 1000, 0
129, 2333.33, 1000, 0
130, 2500, 1000, 0
131, 2666.67, 1000, 0
132, 2833.33, 1000, 0
133, 3000, 1000, 0
134, 3166.67, 1000, 0
135, 3333.33, 1000, 0
136, 3500, 1000, 0
137, 3666.67, 1000, 0
138, 3833.33, 1000, 0
139, 4000, 1000, 0
140, 0, 1166.67, 0
141, 333.333, 1166.67, 0
142, 666.667, 1166.67, 0
143, 1000, 1166.67, 0
144, 1333.33, 1166.67, 0
145, 1666.67, 1166.67, 0
146, 2000, 1166.67, 0
147, 2333.33, 1166.67, 0
148, 2666.67, 1166.67, 0
149, 3000, 1166.67, 0
150, 3333.33, 1166.67, 0
151, 3666.67, 1166.67, 0
152, 4000, 1166.67, 0
153, 0, 1333.33, 0
154, 166.667, 1333.33, 0
155, 333.333, 1333.33, 0
156, 500, 1333.33, 0
157, 666.667, 1333.33, 0
158, 833.333, 1333.33, 0
159, 1000, 1333.33, 0
160, 1166.67, 1333.33, 0
161, 1333.33, 1333.33, 0
162, 1500, 1333.33, 0
163, 1666.67, 1333.33, 0
164, 1833.33, 1333.33, 0
165, 2000, 1333.33, 0
166, 2166.67, 1333.33, 0
167, 2333.33, 1333.33, 0
168, 2500, 1333.33, 0
169, 2666.67, 1333.33, 0
170, 2833.33, 1333.33, 0
171, 3000, 1333.33, 0
172, 3166.67, 1333.33, 0
173, 3333.33, 1333.33, 0
174, 3500, 1333.33, 0
175, 3666.67, 1333.33, 0
176, 3833.33, 1333.33, 0
177, 4000, 1333.33, 0
178, 0, 1500, 0
179, 333.333, 1500, 0
180, 666.667, 1500, 0
181, 1000, 1500, 0
182, 1333.33, 1500, 0
183, 1666.67, 1500, 0
184, 2000, 1500, 0
185, 2333.33, 1500, 0
186, 2666.67, 1500, 0
187, 3000, 1500, 0
188, 3333.33, 1500, 0
189, 3666.67, 1500, 0
190, 4000, 1500, 0
191, 0, 1666.67, 0
192, 166.667, 1666.67, 0
193, 333.333, 1666.67, 0
194, 500, 1666.67, 0
195, 666.667, 1666.67, 0
196, 833.333, 1666.67, 0
197, 1000, 1666.67, 0
198, 1166.67, 1666.67, 0
199, 1333.33, 1666.67, 0
200, 1500, 1666.67, 0
201, 1666.67, 1666.67, 0
202, 1833.33, 1666.67, 0
203, 2000, 1666.67, 0
204, 2166.67, 1666.67, 0
205, 2333.33, 1666.67, 0
206, 2500, 1666.67, 0
207, 2666.67, 1666.67, 0
208, 2833.33, 1666.67, 0
209, 3000, 1666.67, 0
210, 3166.67, 1666.67, 0
211, 3333.33, 1666.67, 0
212, 3500, 1666.67, 0
213, 3666.67, 1666.67, 0
214, 3833.33, 1666.67, 0
215, 4000, 1666.67, 0
216, 0, 1833.33, 0
217, 333.333, 1833.33, 0
218, 666.667, 1833.33, 0
219, 1000, 1833.33, 0
220, 1333.33, 1833.33, 0
221, 1666.67, 1833.33, 0
222, 2000, 1833.33, 0
223, 2333.33, 1833.33, 0
224, 2666.67, 1833.33, 0
225, 3000, 1833.33, 0
226, 3333.33, 1833.33, 0
227, 3666.67, 1833.33, 0
228, 4000, 1833.33, 0
229, 0, 2000, 0
230, 166.667, 2000, 0
231, 333.333, 2000, 0
232, 500, 2000, 0
233, 666.667, 2000, 0
234, 833.333, 2000, 0
235, 1000, 2000, 0
236, 1166.67, 2000, 0
237, 1333.33, 2000, 0
238, 1500, 2000, 0
239, 1666.67, 2000, 0
240, 1833.33, 2000, 0
241, 2000, 2000, 0
242, 2166.67, 2000, 0
243, 2333.33, 2000, 0
244, 2500, 2000, 0
245, 2666.67, 2000, 0
246, 2833.33, 2000, 0
247, 3000, 2000, 0
248, 3166.67, 2000, 0
249, 3333.33, 2000, 0
250, 3500, 2000, 0
251, 3666.67, 2000, 0
252, 3833.33, 2000, 0
253, 4000, 2000, 0
254, 0, 2166.67, 0
255, 333.333, 2166.67, 0
256, 666.667, 2166.67, 0
257, 1000, 2166.67, 0
258, 1333.33, 2166.67, 0
259, 1666.67, 2166.67, 0
260, 2000, 2166.67, 0
261, 2333.33, 2166.67, 0
262, 2666.67, 2166.67, 0
263, 3000, 2166.67, 0
264, 3333.33, 2166.67, 0
265, 3666.67, 2166.67, 0
266, 4000, 2166.67, 0
267, 0, 2333.33, 0
268, 166.667, 2333.33, 0
269, 333.333, 2333.33, 0
270, 500, 2333.33, 0
271, 666.667, 2333.33, 0
272, 833.333, 2333.33, 0
273, 1000, 2333.33, 0
274, 1166.67, 2333.33, 0
275, 1333.33, 2333.33, 0
276, 1500, 2333.33, 0
277, 1666.67, 2333.33, 0
278, 1833.33, 2333.33, 0
279, 2000, 2333.33, 0
280, 2166.67, 2333.33, 0
281, 2333.33, 2333.33, 0
282, 2500, 2333.33, 0
283, 2666.67, 2333.33, 0
284, 2833.33, 2333.33, 0
285, 3000, 2333.33, 0
286, 3166.67, 2333.33, 0
287, 3333.33, 2333.33, 0
288, 3500, 2333.33, 0
289, 3666.67, 2333.33, 0
290, 3833.33, 2333.33, 0
291, 4000, 2333.33, 0
292, 0, 2500, 0
293, 333.333, 2500, 0
294, 666.667, 2500, 0
295, 1000, 2500, 0
296, 1333.33, 2500, 0
297, 1666.67, 2500, 0
298, 2000, 2500, 0
299, 2333.33, 2500, 0
300, 2666.67, 2500, 0
301, 3000, 2500, 0
302, 3333.33, 2500, 0
303, 3666.67, 2500, 0
304, 4000, 2500, 0
305, 0, 2666.67, 0
306, 166.667, 2666.67, 0
307, 333.333, 2666.67, 0
308, 500, 2666.67, 0
309, 666.667, 2666.67, 0
310, 833.333, 2666.67, 0
311, 1000, 2666.67, 0
312, 1166.67, 2666.67, 0
313, 1333.33, 2666.67, 0
314, 1500, 2666.67, 0
315, 1666.67, 2666.67, 0
316, 1833.33, 2666.67, 0
317, 2000, 2666.67, 0
318, 2166.67, 2666.67, 0
319, 2333.33, 2666.67, 0
320, 2500, 2666.67, 0
321, 2666.67, 2666.67, 0
322, 2833.33, 2666.67, 0
323, 3000, 2666.67, 0
324, 3166.67, 2666.67, 0
325, 3333.33, 2666.67, 0
326, 3500, 2666.67, 0
327, 3666.67, 2666.67, 0
328, 3833.33, 2666.67, 0
329, 4000, 2666.67, 0
330, 0, 2833.33, 0
331, 333.333, 2833.33, 0
332, 666.667, 2833.33, 0
333, 1000, 2833.33, 0
334, 1333.33, 2833.33, 0
335, 1666.67, 2833.33, 0
336, 2000, 2833.33, 0
337, 2333.33, 2833.33, 0
338, 2666.67, 2833.33, 0
339, 3000, 2833.33, 0
340, 3333.33, 2833.33, 0
341, 3666.67, 2833.33, 0
342, 4000, 2833.33, 0
343, 0, 3000, 0
344, 166.667, 3000, 0
345, 333.333, 3000, 0
346, 500, 3000, 0
347, 666.667, 3000, 0
348, 833.333, 3000, 0
349, 1000, 3000, 0
350, 1166.67, 3000, 0
351, 1333.33, 3000, 0
352, 1500, 3000, 0
353, 1666.67, 3000, 0
354, 1833.33, 3000, 0
355, 2000, 3000, 0
356, 2166.67, 3000, 0
357, 2333.33, 3000, 0
358, 2500, 3000, 0
359, 2666.67, 3000, 0
360, 2833.33, 3000, 0
361, 3000, 3000, 0
362, 3166.67, 3000, 0
363, 3333.33, 3000, 0
364, 3500, 3000, 0
365, 3666.67, 3000, 0
366, 3833.33, 3000, 0
367, 4000, 3000, 0
368, 0, 3166.67, 0
369, 333.333, 3166.67, 0
370, 666.667, 3166.67, 0
371, 1000, 3166.67, 0
372, 1333.33, 3166.67, 0
373, 1666.67, 3166.67, 0
374, 2000, 3166.67, 0
375, 2333.33, 3166.67, 0
376, 2666.67, 3166.67, 0
377, 3000, 3166.67, 0
378, 3333.33, 3166.67, 0
379, 3666.67, 3166.67, 0
380, 4000, 3166.67, 0
381, 0, 3333.33, 0
382, 166.667, 3333.33, 0
383, 333.333, 3333.33, 0
384, 500, 3333.33, 0
385, 666.667, 3333.33, 0
386, 833.333, 3333.33, 0
387, 1000, 3333.33, 0
388, 1166.67, 3333.33, 0
389, 1333.33, 3333.33, 0
390, 1500, 3333.33, 0
391, 1666.67, 3333.33, 0
392, 1833.33, 3333.33, 0
393, 2000, 3333.33, 0
394, 2166.67, 3333.33, 0
395, 2333.33, 3333.33, 0
396, 2500, 3333.33, 0
397, 2666.67, 3333.33, 0
398, 2833.33, 3333.33, 0
399, 3000, 3333.33, 0
400, 3166.67, 3333.33, 0
401, 3333.33, 3333.33, 0
402, 3500, 3333.33, 0
403, 3666.67, 3333.33, 0
404, 3833.33, 3333.33, 0
405, 4000, 3333.33, 0
406, 0, 3500, 0
407, 333.333, 3500, 0
408, 666.667, 3500, 0
409, 1000, 3500, 0
410, 1333.33, 3500, 0
411, 1666.67, 3500, 0
412, 2000, 3500, 0
413, 2333.33, 3500, 0
414, 2666.67, 3500, 0
415, 3000, 3500, 0
416, 3333.33, 3500, 0
417, 3666.67, 3500, 0
418, 4000, 3500, 0
419, 0, 3666.67, 0
420, 166.667, 3666.67, 0
421, 333.333, 3666.67, 0
422, 500, 3666.67, 0
423, 666.667, 3666.67, 0
424, 833.333, 3666.67, 0
425, 1000, 3666.67, 0
426, 1166.67, 3666.67, 0
427, 1333.33, 3666.67, 0
428, 1500, 3666.67, 0
429, 1666.67, 3666.67, 0
430, 1833.33, 3666.67, 0
431, 2000, 3666.67, 0
432, 2166.67, 3666.67, 0
433, 2333.33, 3666.67, 0
434, 2500, 3666.67, 0
435, 2666.67, 3666.67, 0
436, 2833.33, 3666.67, 0
437, 3000, 3666.67, 0
438, 3166.67, 3666.67, 0
439, 3333.33, 3666.67, 0
440, 3500, 3666.67, 0
441, 3666.67, 3666.67, 0
442, 3833.33, 3666.67, 0
443, 4000, 3666.67, 0
444, 0, 3833.33, 0
445, 333.333, 3833.33, 0
446, 666.667, 3833.33, 0
447, 1000, 3833.33, 0
448, 1333.33, 3833.33, 0
449, 1666.67, 3833.33, 0
450, 2000, 3833.33, 0
451, 2333.33, 3833.33, 0
452, 2666.67, 3833.33, 0
453, 3000, 3833.33, 0
454, 3333.33, 3833.33, 0
455, 3666.67, 3833.33, 0
456, 4000, 3833.33, 0
457, 0, 4000, 0
458, 166.667, 4000, 0
459, 333.333, 4000, 0
460, 500, 4000, 0
461, 666.667, 4000, 0
462, 833.333, 4000, 0
463, 1000, 4000, 0
464, 1166.67, 4000, 0
465, 1333.33, 4000, 0
466, 1500, 4000, 0
467, 1666.67, 4000, 0
468, 1833.33, 4000, 0
469, 2000, 4000, 0
470, 2166.67, 4000, 0
471, 2333.33, 4000, 0
472, 2500, 4000, 0
473, 2666.67, 4000, 0
474, 2833.33, 4000, 0
475, 3000, 4000, 0
476, 3166.67, 4000, 0
477, 3333.33, 4000, 0
478, 3500, 4000, 0
479, 3666.67, 4000, 0
480, 3833.33, 4000, 0
481, 4000, 4000, 0
*ELEMENT, TYPE=S8R, ELSET=SLAB
1, 1, 3, 41, 39, 2, 27, 40, 26
2, 3, 5, 43, 41, 4, 28, 42, 27
3, 5, 7, 45, 43, 6, 29, 44, 28
4, 7, 9, 47, 45, 8, 30, 46, 29
5, 9, 11, 49, 47, 10, 31, 48, 30
6, 11, 13, 51, 49, 12, 32, 50, 31
7, 13, 15, 53, 51, 14, 33, 52, 32
8, 15, 17, 55, 53, 16, 34, 54, 33
9, 17, 19, 57, 55, 18, 35, 56, 34
10, 19, 21, 59, 57, 20, 36, 58, 35
11, 21, 23, 61, 59, 22, 37, 60, 36
12, 23, 25, 63, 61, 24, 38, 62, 37
13, 39, 41, 79, 77, 40, 65, 78, 64
14, 41, 43, 81, 79, 42, 66, 80, 65
15, 43, 45, 83, 81, 44, 67, 82, 66
16, 45, 47, 85, 83, 46, 68, 84, 67
17, 47, 49, 87, 85, 48, 69, 86, 68
18, 49, 51, 89, 87, 50, 70, 88, 69
19, 51, 53, 91, 89, 52, 71, 90, 70
20, 53, 55, 93, 91, 54, 72, 92, 71
21, 55, 57, 95, 93, 56, 73, 94, 72
22, 57, 59, 97, 95, 58, 74, 96, 73
23, 59, 61, 99, 97, 60, 75, 98, 74
24, 61, 63, 101, 99, 62, 76, 100, 75
25, 77, 79, 117, 115, 78, 103, 116, 102
26, 79, 81, 119, 117, 80, 104, 118, 103
27, 81, 83, 121, 119, 82, 105, 120, 104
28, 83, 85, 123, 121, 84, 106, 122, 105
29, 85, 87, 125, 123, 86, 107, 124, 106
30, 87, 89, 127, 125, 88, 108, 126, 107
31, 89, 91, 129, 127, 90, 109, 128, 108
32, 91, 93, 131, 129, 92, 110, 130, 109
33, 93, 95, 133, 131, 94, 111, 132, 110
34, 95, 97, 135, 133, 96, 112, 134, 111
35, 97, 99, 137, 135, 98, 113, 136, 112
36, 99, 101, 139, 137, 100, 114, 138, 113
37, 115, 117, 155, 153, 116, 141, 154, 140
38, 117, 119, 157, 155, 118, 142, 156, 141
39, 119, 121, 159, 157, 120, 143, 158, 142
40, 121, 123, 161, 159, 122, 144, 160, 143
41, 123, 125, 163, 161, 124, 145, 162, 144
42, 125, 127, 165, 163, 126, 146, 164, 145
43, 127, 129, 167, 165, 128, 147, 166, 146
44, 129, 131, 169, 167, 130, 148, 168, 147
45, 131, 133, 171, 169, 132, 149, 170, 148
46, 133, 135, 173, 171, 134, 150, 172, 149
47, 135, 137, 175, 173, 136, 151, 174, 150
48, 137, 139, 177, 175, 138, 152, 176, 151
49, 153, 155, 193, 191, 154, 179, 192, 178
50, 155, 157, 195, 193, 156, 180, 194, 179
51, 157, 159, 197, 195, 158, 181, 196, 180
52, 159, 161, 199, 197, 160, 182, 198, 181
53, 161, 163, 201, 199, 162, 183, 200, 182
54, 163, 165, 203, 201, 164, 184, 202, 183
55, 165, 167, 205, 203, 166, 185, 204, 184
56, 167, 169, 207, 205, 168, 186, 206, 185
57, 169, 171, 209, 207, 170, 187, 208, 186
58, 171, 173, 211, 209, 172, 188, 210, 187
59, 173, 175, 213, 211, 174, 189, 212, 188
60, 175, 177, 215, 213, 176, 190, 214, 189
61, 191, 193, 231, 229, 192, 217, 230, 216
62, 193, 195, 233, 231, 194, 218, 232, 217
63, 195, 197, 235, 233, 196, 219, 234, 218
64, 197, 199, 237, 235, 198, 220, 236, 219
65, 199, 201, 239, 237, 200, 221, 238, 220
66, 201, 203, 241, 239, 202, 222, 240, 221
67, 203, 205, 243, 241, 204, 223, 242, 222
68, 205, 207, 245, 243, 206, 224, 244, 223
69, 207, 209, 247, 245, 208, 225, 246, 224
70, 209, 211, 249, 247, 210, 226, 248, 225
71, 211, 213, 251, 249, 212, 227, 250, 226
72, 213, 215, 253, 251, 214, 228, 252, 227
73, 229, 231, 269, 267, 230, 255, 268, 254
74, 231, 233, 271, 269, 232, 256, 270, 255
75, 233, 235, 273, 271, 234, 257, 272, 256
76, 235, 237, 275, 273, 236, 258, 274, 257
77, 237, 239, 277, 275, 238, 259, 276, 258
78, 239, 241, 279, 277, 240, 260, 278, 259
79, 241, 243, 281, 279, 242, 261, 280, 260
80, 243, 245, 283, 281, 244, 262, 282, 261
81, 245, 247, 285, 283, 246, 263, 284, 262
82, 247, 249, 287, 285, 248, 264, 286, 263
83, 249, 251, 289, 287, 250, 265, 288, 264
84, 251, 253, 291, 289, 252, 266, 290, 265
85, 267, 269, 307, 305, 268, 293, 306, 292
86, 269, 271, 309, 307, 270, 294, 308, 293
87, 271, 273, 311, 309, 272, 295, 310, 294
88, 273, 275, 313, 311, 274, 296, 312, 295
89, 275, 277, 315, 313, 276, 297, 314, 296
90, 277, 279, 317, 315, 278, 298, 316, 297
91, 279, 281, 319, 317, 280, 299, 318, 298
92, 281, 283, 321, 319, 282, 300, 320, 299
93, 283, 285, 323, 321, 284, 301, 322, 300
94, 285, 287, 325, 323, 286, 302, 324, 301
95, 287, 289, 327, 325, 288, 303, 326, 302
96, 289, 291, 329, 327, 290, 304, 328, 303
97, 305, 307, 345, 343, 306, 331, 344, 330
98, 307, 309, 347, 345, 308, 332, 346, 331
99, 309, 311, 349, 347, 310, 333, 348, 332
100, 311, 313, 351, 349, 312, 334, 350, 333
101, 313, 315, 353, 351, 314, 335, 352, 334
102, 315, 317, 355, 353, 316, 336, 354, 335
103, 317, 319, 357, 355, 318, 337, 356, 336
104, 319, 321, 359, 357, 320, 338, 358, 337
105, 321, 323, 361, 359, 322, 339, 360, 338
106, 323, 325, 363, 361, 324, 340, 362, 339
107, 325, 327, 365, 363, 326, 341, 364, 340
108, 327, 329, 367, 365, 328, 342, 366, 341
109, 343, 345, 383, 381, 344, 369, 382, 368
110, 345, 347, 385, 383, 346, 370, 384, 369
111, 347, 349, 387, 385, 348, 371, 386, 370
112, 349, 351, 389, 387, 350, 372, 388, 371
113, 351, 353, 391, 389, 352, 373, 390, 372
114, 353, 355, 393, 391, 354, 374, 392, 373
115, 355, 357, 395, 393, 356, 375, 394, 374
116, 357, 359, 397, 395, 358, 376, 396, 375
117, 359, 361, 399, 397, 360, 377, 398, 376
118, 361, 363, 401, 399, 362, 378, 400, 377
119, 363, 365, 403, 401, 364, 379, 402, 378
120, 365, 367, 405, 403, 366, 380, 404, 379
121, 381, 383, 421, 419, 382, 407, 420, 406
122, 383, 385, 423, 421, 384, 408, 422, 407
123, 385, 387, 425, 423, 386, 409, 424, 408
124, 387, 389, 427, 425, 388, 410, 426, 409
125, 389, 391, 429, 427, 390, 411, 428, 410
126, 391, 393, 431, 429, 392, 412, 430, 411
127, 393, 395, 433, 431, 394, 413, 432, 412
128, 395, 397, 435, 433, 396, 414, 434, 413
129, 397, 399, 437, 435, 398, 415, 436, 414
130, 399, 401, 439, 437, 400, 416, 438, 415
131, 401, 403, 441, 439, 402, 417, 440, 416
132, 403, 405, 443, 441, 404, 418, 442, 417
133, 419, 421, 459, 457, 420, 445, 458, 444
134, 421, 423, 461, 459, 422, 446, 460, 445
135, 423, 425, 463, 461, 424, 447, 462, 446
136, 425, 427, 465, 463, 426, 448, 464, 447
137, 427, 429, 467, 465, 428, 449, 466, 448
138, 429, 431, 469, 467, 430, 450, 468, 449
139, 431, 433, 471, 469, 432, 451, 470, 450
140, 433, 435, 473, 471, 434, 452, 472, 451
141, 435, 437, 475, 473, 436, 453, 474, 452
142, 437, 439, 477, 475, 438, 454, 476, 453
143, 439, 441, 479, 477, 440, 455, 478, 454
144, 441, 443, 481, 479, 442, 456, 480, 455
*NSET, NSET=EDGES
1,
2,
3,
4,
5,
6,
7,
8,
9,
10,
11,
12,
13,
14,
15,
16,
17,
18,
19,
20,
21,
22,
23,
24,
25,
26,
38,
39,
63,
64,
76,
77,
101,
102,
114,
115,
139,
140,
152,
153,
177,
178,
190,
191,
215,
216,
228,
229,
253,
254,
266,
267,
291,
292,
304,
305,
329,
330,
342,
343,
367,
368,
380,
381,
405,
406,
418,
419,
443,
444,
456,
457,
458,
459,
460,
461,
462,
463,
464,
465,
466,
467,
468,
469,
470,
471,
472,
473,
474,
475,
476,
477,
478,
479,
480,
481,
*MATERIAL, NAME=CONCRETE
*ELASTIC
30000, 0.2
*SHELL SECTION, ELSET=SLAB, MATERIAL=CONCRETE
200
*BOUNDARY
EDGES, 3
1, 1, 2
25, 2
*STEP
*STATIC
*DLOAD
SLAB, P, -0.02
*NODE FILE
U
*EL FILE
S
*END STEP
