** pressure vessel: hemispherical head with a top nozzle (quarter model), from make_vessel.py
*HEADING
vessel with nozzle, ASME VIII-2 5-A linearization example
*NODE, NSET=NALL
1, 500.000000, 0.000000, 0.000000
2, 500.000000, 0.000000, 79.196402
3, 506.250000, 0.000000, 79.207112
4, 506.250000, 0.000000, 0.000000
5, 490.392640, 97.545161, 0.000000
6, 490.392640, 97.545161, 79.196402
7, 496.522548, 98.764476, 79.207112
8, 496.522548, 98.764476, 0.000000
9, 500.000000, 0.000000, 39.799553
10, 503.125000, 0.000000, 79.201757
11, 506.250000, 0.000000, 39.804935
12, 503.125000, 0.000000, 0.000000
13, 490.392640, 97.545161, 39.799553
14, 493.457594, 98.154818, 79.201757
15, 496.522548, 98.764476, 39.804935
16, 493.457594, 98.154818, 0.000000
17, 497.592363, 49.008570, 0.000000
18, 497.592363, 49.008570, 79.196402
19, 503.812268, 49.621177, 79.207112
20, 503.812268, 49.621177, 0.000000
21, 461.939766, 191.341716, 0.000000
22, 461.939766, 191.341716, 79.196402
23, 467.714013, 193.733488, 79.207112
24, 467.714013, 193.733488, 0.000000
25, 461.939766, 191.341716, 39.799553
26, 464.826890, 192.537602, 79.201757
27, 467.714013, 193.733488, 39.804935
28, 464.826890, 192.537602, 0.000000
29, 478.470168, 145.142339, 0.000000
30, 478.470168, 145.142339, 79.196402
31, 484.451045, 146.956618, 79.207112
32, 484.451045, 146.956618, 0.000000
33, 415.734806, 277.785117, 0.000000
34, 415.734806, 277.785117, 79.196402
35, 420.931491, 281.257430, 79.207112
36, 420.931491, 281.257430, 0.000000
37, 415.734806, 277.785117, 39.799553
38, 418.333149, 279.521273, 79.201757
39, 420.931491, 281.257430, 39.804935
40, 418.333149, 279.521273, 0.000000
41, 440.960632, 235.698368, 0.000000
42, 440.960632, 235.698368, 79.196402
43, 446.472640, 238.644598, 79.207112
44, 446.472640, 238.644598, 0.000000
45, 353.553391, 353.553391, 0.000000
46, 353.553391, 353.553391, 79.196402
47, 357.972808, 357.972808, 79.207112
48, 357.972808, 357.972808, 0.000000
49, 353.553391, 353.553391, 39.799553
50, 355.763099, 355.763099, 79.201757
51, 357.972808, 357.972808, 39.804935
52, 355.763099, 355.763099, 0.000000
53, 386.505227, 317.196642, 0.000000
54, 386.505227, 317.196642, 79.196402
55, 391.336542, 321.161600, 79.207112
56, 391.336542, 321.161600, 0.000000
57, 277.785117, 415.734806, 0.000000
58, 277.785117, 415.734806, 79.196402
59, 281.257430, 420.931491, 79.207112
60, 281.257430, 420.931491, 0.000000
61, 277.785117, 415.734806, 39.799553
62, 279.521273, 418.333149, 79.201757
63, 281.257430, 420.931491, 39.804935
64, 279.521273, 418.333149, 0.000000
65, 317.196642, 386.505227, 0.000000
66, 317.196642, 386.505227, 79.196402
67, 321.161600, 391.336542, 79.207112
68, 321.161600, 391.336542, 0.000000
69, 191.341716, 461.939766, 0.000000
70, 191.341716, 461.939766, 79.196402
71, 193.733488, 467.714013, 79.207112
72, 193.733488, 467.714013, 0.000000
73, 191.341716, 461.939766, 39.799553
74, 192.537602, 464.826890, 79.201757
75, 193.733488, 467.714013, 39.804935
76, 192.537602, 464.826890, 0.000000
77, 235.698368, 440.960632, 0.000000
78, 235.698368, 440.960632, 79.196402
79, 238.644598, 446.472640, 79.207112
80, 238.644598, 446.472640, 0.000000
81, 97.545161, 490.392640, 0.000000
82, 97.545161, 490.392640, 79.196402
83, 98.764476, 496.522548, 79.207112
84, 98.764476, 496.522548, 0.000000
85, 97.545161, 490.392640, 39.799553
86, 98.154818, 493.457594, 79.201757
87, 98.764476, 496.522548, 39.804935
88, 98.154818, 493.457594, 0.000000
89, 145.142339, 478.470168, 0.000000
90, 145.142339, 478.470168, 79.196402
91, 146.956618, 484.451045, 79.207112
92, 146.956618, 484.451045, 0.000000
93, 0.000000, 500.000000, 0.000000
94, 0.000000, 500.000000, 79.196402
95, 0.000000, 506.250000, 79.207112
96, 0.000000, 506.250000, 0.000000
97, 0.000000, 500.000000, 39.799553
98, 0.000000, 503.125000, 79.201757
99, 0.000000, 506.250000, 39.804935
100, 0.000000, 503.125000, 0.000000
101, 49.008570, 497.592363, 0.000000
102, 49.008570, 497.592363, 79.196402
103, 49.621177, 503.812268, 79.207112
104, 49.621177, 503.812268, 0.000000
105, 512.500000, 0.000000, 79.217822
106, 512.500000, 0.000000, 0.000000
107, 502.652456, 99.983790, 79.217822
108, 502.652456, 99.983790, 0.000000
109, 509.375000, 0.000000, 79.212467
110, 512.500000, 0.000000, 39.810317
111, 509.375000, 0.000000, 0.000000
112, 499.587502, 99.374133, 79.212467
113, 502.652456, 99.983790, 39.810317
114, 499.587502, 99.374133, 0.000000
115, 510.032172, 50.233784, 79.217822
116, 510.032172, 50.233784, 0.000000
117, 473.488260, 196.125259, 79.217822
118, 473.488260, 196.125259, 0.000000
119, 470.601137, 194.929373, 79.212467
120, 473.488260, 196.125259, 39.810317
121, 470.601137, 194.929373, 0.000000
122, 490.431922, 148.770897, 79.217822
123, 490.431922, 148.770897, 0.000000
124, 426.128176, 284.729744, 79.217822
125, 426.128176, 284.729744, 0.000000
126, 423.529834, 282.993587, 79.212467
127, 426.128176, 284.729744, 39.810317
128, 423.529834, 282.993587, 0.000000
129, 451.984648, 241.590828, 79.217822
130, 451.984648, 241.590828, 0.000000
131, 362.392225, 362.392225, 79.217822
132, 362.392225, 362.392225, 0.000000
133, 360.182517, 360.182517, 79.212467
134, 362.392225, 362.392225, 39.810317
135, 360.182517, 360.182517, 0.000000
136, 396.167857, 325.126558, 79.217822
137, 396.167857, 325.126558, 0.000000
138, 284.729744, 426.128176, 79.217822
139, 284.729744, 426.128176, 0.000000
140, 282.993587, 423.529834, 79.212467
141, 284.729744, 426.128176, 39.810317
142, 282.993587, 423.529834, 0.000000
143, 325.126558, 396.167857, 79.217822
144, 325.126558, 396.167857, 0.000000
145, 196.125259, 473.488260, 79.217822
146, 196.125259, 473.488260, 0.000000
147, 194.929373, 470.601137, 79.212467
148, 196.125259, 473.488260, 39.810317
149, 194.929373, 470.601137, 0.000000
150, 241.590828, 451.984648, 79.217822
151, 241.590828, 451.984648, 0.000000
152, 99.983790, 502.652456, 79.217822
153, 99.983790, 502.652456, 0.000000
154, 99.374133, 499.587502, 79.212467
155, 99.983790, 502.652456, 39.810317
156, 99.374133, 499.587502, 0.000000
157, 148.770897, 490.431922, 79.217822
158, 148.770897, 490.431922, 0.000000
159, 0.000000, 512.500000, 79.217822
160, 0.000000, 512.500000, 0.000000
161, 0.000000, 509.375000, 79.212467
162, 0.000000, 512.500000, 39.810317
163, 0.000000, 509.375000, 0.000000
164, 50.233784, 510.032172, 79.217822
165, 50.233784, 510.032172, 0.000000
166, 518.750000, 0.000000, 79.228532
167, 518.750000, 0.000000, 0.000000
168, 508.782364, 101.203105, 79.228532
169, 508.782364, 101.203105, 0.000000
170, 515.625000, 0.000000, 79.223177
171, 518.750000, 0.000000, 39.815699
172, 515.625000, 0.000000, 0.000000
173, 505.717410, 100.593447, 79.223177
174, 508.782364, 101.203105, 39.815699
175, 505.717410, 100.593447, 0.000000
176, 516.252077, 50.846392, 79.228532
177, 516.252077, 50.846392, 0.000000
178, 479.262507, 198.517031, 79.228532
179, 479.262507, 198.517031, 0.000000
180, 476.375384, 197.321145, 79.223177
181, 479.262507, 198.517031, 39.815699
182, 476.375384, 197.321145, 0.000000
183, 496.412799, 150.585176, 79.228532
184, 496.412799, 150.585176, 0.000000
185, 431.324861, 288.202058, 79.228532
186, 431.324861, 288.202058, 0.000000
187, 428.726519, 286.465901, 79.223177
188, 431.324861, 288.202058, 39.815699
189, 428.726519, 286.465901, 0.000000
190, 457.496656, 244.537057, 79.228532
191, 457.496656, 244.537057, 0.000000
192, 366.811643, 366.811643, 79.228532
193, 366.811643, 366.811643, 0.000000
194, 364.601934, 364.601934, 79.223177
195, 366.811643, 366.811643, 39.815699
196, 364.601934, 364.601934, 0.000000
197, 400.999173, 329.091516, 79.228532
198, 400.999173, 329.091516, 0.000000
199, 288.202058, 431.324861, 79.228532
200, 288.202058, 431.324861, 0.000000
201, 286.465901, 428.726519, 79.223177
202, 288.202058, 431.324861, 39.815699
203, 286.465901, 428.726519, 0.000000
204, 329.091516, 400.999173, 79.228532
205, 329.091516, 400.999173, 0.000000
206, 198.517031, 479.262507, 79.228532
207, 198.517031, 479.262507, 0.000000
208, 197.321145, 476.375384, 79.223177
209, 198.517031, 479.262507, 39.815699
210, 197.321145, 476.375384, 0.000000
211, 244.537057, 457.496656, 79.228532
212, 244.537057, 457.496656, 0.000000
213, 101.203105, 508.782364, 79.228532
214, 101.203105, 508.782364, 0.000000
215, 100.593447, 505.717410, 79.223177
216, 101.203105, 508.782364, 39.815699
217, 100.593447, 505.717410, 0.000000
218, 150.585176, 496.412799, 79.228532
219, 150.585176, 496.412799, 0.000000
220, 0.000000, 518.750000, 79.228532
221, 0.000000, 518.750000, 0.000000
222, 0.000000, 515.625000, 79.223177
223, 0.000000, 518.750000, 39.815699
224, 0.000000, 515.625000, 0.000000
225, 50.846392, 516.252077, 79.228532
226, 50.846392, 516.252077, 0.000000
227, 525.000000, 0.000000, 79.239242
228, 525.000000, 0.000000, 0.000000
229, 514.912272, 102.422419, 79.239242
230, 514.912272, 102.422419, 0.000000
231, 521.875000, 0.000000, 79.233887
232, 525.000000, 0.000000, 39.821082
233, 521.875000, 0.000000, 0.000000
234, 511.847318, 101.812762, 79.233887
235, 514.912272, 102.422419, 39.821082
236, 511.847318, 101.812762, 0.000000
237, 522.471982, 51.458999, 79.239242
238, 522.471982, 51.458999, 0.000000
239, 485.036755, 200.908802, 79.239242
240, 485.036755, 200.908802, 0.000000
241, 482.149631, 199.712916, 79.233887
242, 485.036755, 200.908802, 39.821082
243, 482.149631, 199.712916, 0.000000
244, 502.393676, 152.399456, 79.239242
245, 502.393676, 152.399456, 0.000000
246, 436.521546, 291.674372, 79.239242
247, 436.521546, 291.674372, 0.000000
248, 433.923204, 289.938215, 79.233887
249, 436.521546, 291.674372, 39.821082
250, 433.923204, 289.938215, 0.000000
251, 463.008664, 247.483287, 79.239242
252, 463.008664, 247.483287, 0.000000
253, 371.231060, 371.231060, 79.239242
254, 371.231060, 371.231060, 0.000000
255, 369.021351, 369.021351, 79.233887
256, 371.231060, 371.231060, 39.821082
257, 369.021351, 369.021351, 0.000000
258, 405.830488, 333.056474, 79.239242
259, 405.830488, 333.056474, 0.000000
260, 291.674372, 436.521546, 79.239242
261, 291.674372, 436.521546, 0.000000
262, 289.938215, 433.923204, 79.233887
263, 291.674372, 436.521546, 39.821082
264, 289.938215, 433.923204, 0.000000
265, 333.056474, 405.830488, 79.239242
266, 333.056474, 405.830488, 0.000000
267, 200.908802, 485.036755, 79.239242
268, 200.908802, 485.036755, 0.000000
269, 199.712916, 482.149631, 79.233887
270, 200.908802, 485.036755, 39.821082
271, 199.712916, 482.149631, 0.000000
272, 247.483287, 463.008664, 79.239242
273, 247.483287, 463.008664, 0.000000
274, 102.422419, 514.912272, 79.239242
275, 102.422419, 514.912272, 0.000000
276, 101.812762, 511.847318, 79.233887
277, 102.422419, 514.912272, 39.821082
278, 101.812762, 511.847318, 0.000000
279, 152.399456, 502.393676, 79.239242
280, 152.399456, 502.393676, 0.000000
281, 0.000000, 525.000000, 79.239242
282, 0.000000, 525.000000, 0.000000
283, 0.000000, 521.875000, 79.233887
284, 0.000000, 525.000000, 39.821082
285, 0.000000, 521.875000, 0.000000
286, 51.458999, 522.471982, 79.239242
287, 51.458999, 522.471982, 0.000000
288, 500.000000, 0.000000, 156.770870
289, 506.250000, 0.000000, 156.792070
290, 490.392640, 97.545161, 156.770870
291, 496.522548, 98.764476, 156.792070
292, 500.000000, 0.000000, 118.187785
293, 503.125000, 0.000000, 156.781470
294, 506.250000, 0.000000, 118.203768
295, 490.392640, 97.545161, 118.187785
296, 493.457594, 98.154818, 156.781470
297, 496.522548, 98.764476, 118.203768
298, 497.592363, 49.008570, 156.770870
299, 503.812268, 49.621177, 156.792070
300, 461.939766, 191.341716, 156.770870
301, 467.714013, 193.733488, 156.792070
302, 461.939766, 191.341716, 118.187785
303, 464.826890, 192.537602, 156.781470
304, 467.714013, 193.733488, 118.203768
305, 478.470168, 145.142339, 156.770870
306, 484.451045, 146.956618, 156.792070
307, 415.734806, 277.785117, 156.770870
308, 420.931491, 281.257430, 156.792070
309, 415.734806, 277.785117, 118.187785
310, 418.333149, 279.521273, 156.781470
311, 420.931491, 281.257430, 118.203768
312, 440.960632, 235.698368, 156.770870
313, 446.472640, 238.644598, 156.792070
314, 353.553391, 353.553391, 156.770870
315, 357.972808, 357.972808, 156.792070
316, 353.553391, 353.553391, 118.187785
317, 355.763099, 355.763099, 156.781470
318, 357.972808, 357.972808, 118.203768
319, 386.505227, 317.196642, 156.770870
320, 391.336542, 321.161600, 156.792070
321, 277.785117, 415.734806, 156.770870
322, 281.257430, 420.931491, 156.792070
323, 277.785117, 415.734806, 118.187785
324, 279.521273, 418.333149, 156.781470
325, 281.257430, 420.931491, 118.203768
326, 317.196642, 386.505227, 156.770870
327, 321.161600, 391.336542, 156.792070
328, 191.341716, 461.939766, 156.770870
329, 193.733488, 467.714013, 156.792070
330, 191.341716, 461.939766, 118.187785
331, 192.537602, 464.826890, 156.781470
332, 193.733488, 467.714013, 118.203768
333, 235.698368, 440.960632, 156.770870
334, 238.644598, 446.472640, 156.792070
335, 97.545161, 490.392640, 156.770870
336, 98.764476, 496.522548, 156.792070
337, 97.545161, 490.392640, 118.187785
338, 98.154818, 493.457594, 156.781470
339, 98.764476, 496.522548, 118.203768
340, 145.142339, 478.470168, 156.770870
341, 146.956618, 484.451045, 156.792070
342, 0.000000, 500.000000, 156.770870
343, 0.000000, 506.250000, 156.792070
344, 0.000000, 500.000000, 118.187785
345, 0.000000, 503.125000, 156.781470
346, 0.000000, 506.250000, 118.203768
347, 49.008570, 497.592363, 156.770870
348, 49.621177, 503.812268, 156.792070
349, 512.500000, 0.000000, 156.813270
350, 502.652456, 99.983790, 156.813270
351, 509.375000, 0.000000, 156.802670
352, 512.500000, 0.000000, 118.219750
353, 499.587502, 99.374133, 156.802670
354, 502.652456, 99.983790, 118.219750
355, 510.032172, 50.233784, 156.813270
356, 473.488260, 196.125259, 156.813270
357, 470.601137, 194.929373, 156.802670
358, 473.488260, 196.125259, 118.219750
359, 490.431922, 148.770897, 156.813270
360, 426.128176, 284.729744, 156.813270
361, 423.529834, 282.993587, 156.802670
362, 426.128176, 284.729744, 118.219750
363, 451.984648, 241.590828, 156.813270
364, 362.392225, 362.392225, 156.813270
365, 360.182517, 360.182517, 156.802670
366, 362.392225, 362.392225, 118.219750
367, 396.167857, 325.126558, 156.813270
368, 284.729744, 426.128176, 156.813270
369, 282.993587, 423.529834, 156.802670
370, 284.729744, 426.128176, 118.219750
371, 325.126558, 396.167857, 156.813270
372, 196.125259, 473.488260, 156.813270
373, 194.929373, 470.601137, 156.802670
374, 196.125259, 473.488260, 118.219750
375, 241.590828, 451.984648, 156.813270
376, 99.983790, 502.652456, 156.813270
377, 99.374133, 499.587502, 156.802670
378, 99.983790, 502.652456, 118.219750
379, 148.770897, 490.431922, 156.813270
380, 0.000000, 512.500000, 156.813270
381, 0.000000, 509.375000, 156.802670
382, 0.000000, 512.500000, 118.219750
383, 50.233784, 510.032172, 156.813270
384, 518.750000, 0.000000, 156.834471
385, 508.782364, 101.203105, 156.834471
386, 515.625000, 0.000000, 156.823871
387, 518.750000, 0.000000, 118.235733
388, 505.717410, 100.593447, 156.823871
389, 508.782364, 101.203105, 118.235733
390, 516.252077, 50.846392, 156.834471
391, 479.262507, 198.517031, 156.834471
392, 476.375384, 197.321145, 156.823871
393, 479.262507, 198.517031, 118.235733
394, 496.412799, 150.585176, 156.834471
395, 431.324861, 288.202058, 156.834471
396, 428.726519, 286.465901, 156.823871
397, 431.324861, 288.202058, 118.235733
398, 457.496656, 244.537057, 156.834471
399, 366.811643, 366.811643, 156.834471
400, 364.601934, 364.601934, 156.823871
401, 366.811643, 366.811643, 118.235733
402, 400.999173, 329.091516, 156.834471
403, 288.202058, 431.324861, 156.834471
404, 286.465901, 428.726519, 156.823871
405, 288.202058, 431.324861, 118.235733
406, 329.091516, 400.999173, 156.834471
407, 198.517031, 479.262507, 156.834471
408, 197.321145, 476.375384, 156.823871
409, 198.517031, 479.262507, 118.235733
410, 244.537057, 457.496656, 156.834471
411, 101.203105, 508.782364, 156.834471
412, 100.593447, 505.717410, 156.823871
413, 101.203105, 508.782364, 118.235733
414, 150.585176, 496.412799, 156.834471
415, 0.000000, 518.750000, 156.834471
416, 0.000000, 515.625000, 156.823871
417, 0.000000, 518.750000, 118.235733
418, 50.846392, 516.252077, 156.834471
419, 525.000000, 0.000000, 156.855671
420, 514.912272, 102.422419, 156.855671
421, 521.875000, 0.000000, 156.845071
422, 525.000000, 0.000000, 118.251716
423, 511.847318, 101.812762, 156.845071
424, 514.912272, 102.422419, 118.251716
425, 522.471982, 51.458999, 156.855671
426, 485.036755, 200.908802, 156.855671
427, 482.149631, 199.712916, 156.845071
428, 485.036755, 200.908802, 118.251716
429, 502.393676, 152.399456, 156.855671
430, 436.521546, 291.674372, 156.855671
431, 433.923204, 289.938215, 156.845071
432, 436.521546, 291.674372, 118.251716
433, 463.008664, 247.483287, 156.855671
434, 371.231060, 371.231060, 156.855671
435, 369.021351, 369.021351, 156.845071
436, 371.231060, 371.231060, 118.251716
437, 405.830488, 333.056474, 156.855671
438, 291.674372, 436.521546, 156.855671
439, 289.938215, 433.923204, 156.845071
440, 291.674372, 436.521546, 118.251716
441, 333.056474, 405.830488, 156.855671
442, 200.908802, 485.036755, 156.855671
443, 199.712916, 482.149631, 156.845071
444, 200.908802, 485.036755, 118.251716
445, 247.483287, 463.008664, 156.855671
446, 102.422419, 514.912272, 156.855671
447, 101.812762, 511.847318, 156.845071
448, 102.422419, 514.912272, 118.251716
449, 152.399456, 502.393676, 156.855671
450, 0.000000, 525.000000, 156.855671
451, 0.000000, 521.875000, 156.845071
452, 0.000000, 525.000000, 118.251716
453, 51.458999, 522.471982, 156.855671
454, 500.000000, 0.000000, 232.700469
455, 506.250000, 0.000000, 232.731937
456, 490.392640, 97.545161, 232.700469
457, 496.522548, 98.764476, 232.731937
458, 500.000000, 0.000000, 194.942756
459, 503.125000, 0.000000, 232.716203
460, 506.250000, 0.000000, 194.969118
461, 490.392640, 97.545161, 194.942756
462, 493.457594, 98.154818, 232.716203
463, 496.522548, 98.764476, 194.969118
464, 497.592363, 49.008570, 232.700469
465, 503.812268, 49.621177, 232.731937
466, 461.939766, 191.341716, 232.700469
467, 467.714013, 193.733488, 232.731937
468, 461.939766, 191.341716, 194.942756
469, 464.826890, 192.537602, 232.716203
470, 467.714013, 193.733488, 194.969118
471, 478.470168, 145.142339, 232.700469
472, 484.451045, 146.956618, 232.731937
473, 415.734806, 277.785117, 232.700469
474, 420.931491, 281.257430, 232.731937
475, 415.734806, 277.785117, 194.942756
476, 418.333149, 279.521273, 232.716203
477, 420.931491, 281.257430, 194.969118
478, 440.960632, 235.698368, 232.700469
479, 446.472640, 238.644598, 232.731937
480, 353.553391, 353.553391, 232.700469
481, 357.972808, 357.972808, 232.731937
482, 353.553391, 353.553391, 194.942756
483, 355.763099, 355.763099, 232.716203
484, 357.972808, 357.972808, 194.969118
485, 386.505227, 317.196642, 232.700469
486, 391.336542, 321.161600, 232.731937
487, 277.785117, 415.734806, 232.700469
488, 281.257430, 420.931491, 232.731937
489, 277.785117, 415.734806, 194.942756
490, 279.521273, 418.333149, 232.716203
491, 281.257430, 420.931491, 194.969118
492, 317.196642, 386.505227, 232.700469
493, 321.161600, 391.336542, 232.731937
494, 191.341716, 461.939766, 232.700469
495, 193.733488, 467.714013, 232.731937
496, 191.341716, 461.939766, 194.942756
497, 192.537602, 464.826890, 232.716203
498, 193.733488, 467.714013, 194.969118
499, 235.698368, 440.960632, 232.700469
500, 238.644598, 446.472640, 232.731937
501, 97.545161, 490.392640, 232.700469
502, 98.764476, 496.522548, 232.731937
503, 97.545161, 490.392640, 194.942756
504, 98.154818, 493.457594, 232.716203
505, 98.764476, 496.522548, 194.969118
506, 145.142339, 478.470168, 232.700469
507, 146.956618, 484.451045, 232.731937
508, 0.000000, 500.000000, 232.700469
509, 0.000000, 506.250000, 232.731937
510, 0.000000, 500.000000, 194.942756
511, 0.000000, 503.125000, 232.716203
512, 0.000000, 506.250000, 194.969118
513, 49.008570, 497.592363, 232.700469
514, 49.621177, 503.812268, 232.731937
515, 512.500000, 0.000000, 232.763406
516, 502.652456, 99.983790, 232.763406
517, 509.375000, 0.000000, 232.747672
518, 512.500000, 0.000000, 194.995481
519, 499.587502, 99.374133, 232.747672
520, 502.652456, 99.983790, 194.995481
521, 510.032172, 50.233784, 232.763406
522, 473.488260, 196.125259, 232.763406
523, 470.601137, 194.929373, 232.747672
524, 473.488260, 196.125259, 194.995481
525, 490.431922, 148.770897, 232.763406
526, 426.128176, 284.729744, 232.763406
527, 423.529834, 282.993587, 232.747672
528, 426.128176, 284.729744, 194.995481
529, 451.984648, 241.590828, 232.763406
530, 362.392225, 362.392225, 232.763406
531, 360.182517, 360.182517, 232.747672
532, 362.392225, 362.392225, 194.995481
533, 396.167857, 325.126558, 232.763406
534, 284.729744, 426.128176, 232.763406
535, 282.993587, 423.529834, 232.747672
536, 284.729744, 426.128176, 194.995481
537, 325.126558, 396.167857, 232.763406
538, 196.125259, 473.488260, 232.763406
539, 194.929373, 470.601137, 232.747672
540, 196.125259, 473.488260, 194.995481
541, 241.590828, 451.984648, 232.763406
542, 99.983790, 502.652456, 232.763406
543, 99.374133, 499.587502, 232.747672
544, 99.983790, 502.652456, 194.995481
545, 148.770897, 490.431922, 232.763406
546, 0.000000, 512.500000, 232.763406
547, 0.000000, 509.375000, 232.747672
548, 0.000000, 512.500000, 194.995481
549, 50.233784, 510.032172, 232.763406
550, 518.750000, 0.000000, 232.794874
551, 508.782364, 101.203105, 232.794874
552, 515.625000, 0.000000, 232.779140
553, 518.750000, 0.000000, 195.021843
554, 505.717410, 100.593447, 232.779140
555, 508.782364, 101.203105, 195.021843
556, 516.252077, 50.846392, 232.794874
557, 479.262507, 198.517031, 232.794874
558, 476.375384, 197.321145, 232.779140
559, 479.262507, 198.517031, 195.021843
560, 496.412799, 150.585176, 232.794874
561, 431.324861, 288.202058, 232.794874
562, 428.726519, 286.465901, 232.779140
563, 431.324861, 288.202058, 195.021843
564, 457.496656, 244.537057, 232.794874
565, 366.811643, 366.811643, 232.794874
566, 364.601934, 364.601934, 232.779140
567, 366.811643, 366.811643, 195.021843
568, 400.999173, 329.091516, 232.794874
569, 288.202058, 431.324861, 232.794874
570, 286.465901, 428.726519, 232.779140
571, 288.202058, 431.324861, 195.021843
572, 329.091516, 400.999173, 232.794874
573, 198.517031, 479.262507, 232.794874
574, 197.321145, 476.375384, 232.779140
575, 198.517031, 479.262507, 195.021843
576, 244.537057, 457.496656, 232.794874
577, 101.203105, 508.782364, 232.794874
578, 100.593447, 505.717410, 232.779140
579, 101.203105, 508.782364, 195.021843
580, 150.585176, 496.412799, 232.794874
581, 0.000000, 518.750000, 232.794874
582, 0.000000, 515.625000, 232.779140
583, 0.000000, 518.750000, 195.021843
584, 50.846392, 516.252077, 232.794874
585, 525.000000, 0.000000, 232.826343
586, 514.912272, 102.422419, 232.826343
587, 521.875000, 0.000000, 232.810608
588, 525.000000, 0.000000, 195.048206
589, 511.847318, 101.812762, 232.810608
590, 514.912272, 102.422419, 195.048206
591, 522.471982, 51.458999, 232.826343
592, 485.036755, 200.908802, 232.826343
593, 482.149631, 199.712916, 232.810608
594, 485.036755, 200.908802, 195.048206
595, 502.393676, 152.399456, 232.826343
596, 436.521546, 291.674372, 232.826343
597, 433.923204, 289.938215, 232.810608
598, 436.521546, 291.674372, 195.048206
599, 463.008664, 247.483287, 232.826343
600, 371.231060, 371.231060, 232.826343
601, 369.021351, 369.021351, 232.810608
602, 371.231060, 371.231060, 195.048206
603, 405.830488, 333.056474, 232.826343
604, 291.674372, 436.521546, 232.826343
605, 289.938215, 433.923204, 232.810608
606, 291.674372, 436.521546, 195.048206
607, 333.056474, 405.830488, 232.826343
608, 200.908802, 485.036755, 232.826343
609, 199.712916, 482.149631, 232.810608
610, 200.908802, 485.036755, 195.048206
611, 247.483287, 463.008664, 232.826343
612, 102.422419, 514.912272, 232.826343
613, 101.812762, 511.847318, 232.810608
614, 102.422419, 514.912272, 195.048206
615, 152.399456, 502.393676, 232.826343
616, 0.000000, 525.000000, 232.826343
617, 0.000000, 521.875000, 232.810608
618, 0.000000, 525.000000, 195.048206
619, 51.458999, 522.471982, 232.826343
620, 500.000000, 0.000000, 306.961089
621, 506.250000, 0.000000, 307.002600
622, 490.392640, 97.545161, 306.961089
623, 496.522548, 98.764476, 307.002600
624, 500.000000, 0.000000, 270.040957
625, 503.125000, 0.000000, 306.981845
626, 506.250000, 0.000000, 270.077475
627, 490.392640, 97.545161, 270.040957
628, 493.457594, 98.154818, 306.981845
629, 496.522548, 98.764476, 270.077475
630, 497.592363, 49.008570, 306.961089
631, 503.812268, 49.621177, 307.002600
632, 461.939766, 191.341716, 306.961089
633, 467.714013, 193.733488, 307.002600
634, 461.939766, 191.341716, 270.040957
635, 464.826890, 192.537602, 306.981845
636, 467.714013, 193.733488, 270.077475
637, 478.470168, 145.142339, 306.961089
638, 484.451045, 146.956618, 307.002600
639, 415.734806, 277.785117, 306.961089
640, 420.931491, 281.257430, 307.002600
641, 415.734806, 277.785117, 270.040957
642, 418.333149, 279.521273, 306.981845
643, 420.931491, 281.257430, 270.077475
644, 440.960632, 235.698368, 306.961089
645, 446.472640, 238.644598, 307.002600
646, 353.553391, 353.553391, 306.961089
647, 357.972808, 357.972808, 307.002600
648, 353.553391, 353.553391, 270.040957
649, 355.763099, 355.763099, 306.981845
650, 357.972808, 357.972808, 270.077475
651, 386.505227, 317.196642, 306.961089
652, 391.336542, 321.161600, 307.002600
653, 277.785117, 415.734806, 306.961089
654, 281.257430, 420.931491, 307.002600
655, 277.785117, 415.734806, 270.040957
656, 279.521273, 418.333149, 306.981845
657, 281.257430, 420.931491, 270.077475
658, 317.196642, 386.505227, 306.961089
659, 321.161600, 391.336542, 307.002600
660, 191.341716, 461.939766, 306.961089
661, 193.733488, 467.714013, 307.002600
662, 191.341716, 461.939766, 270.040957
663, 192.537602, 464.826890, 306.981845
664, 193.733488, 467.714013, 270.077475
665, 235.698368, 440.960632, 306.961089
666, 238.644598, 446.472640, 307.002600
667, 97.545161, 490.392640, 306.961089
668, 98.764476, 496.522548, 307.002600
669, 97.545161, 490.392640, 270.040957
670, 98.154818, 493.457594, 306.981845
671, 98.764476, 496.522548, 270.077475
672, 145.142339, 478.470168, 306.961089
673, 146.956618, 484.451045, 307.002600
674, 0.000000, 500.000000, 306.961089
675, 0.000000, 506.250000, 307.002600
676, 0.000000, 500.000000, 270.040957
677, 0.000000, 503.125000, 306.981845
678, 0.000000, 506.250000, 270.077475
679, 49.008570, 497.592363, 306.961089
680, 49.621177, 503.812268, 307.002600
681, 512.500000, 0.000000, 307.044111
682, 502.652456, 99.983790, 307.044111
683, 509.375000, 0.000000, 307.023356
684, 512.500000, 0.000000, 270.113993
685, 499.587502, 99.374133, 307.023356
686, 502.652456, 99.983790, 270.113993
687, 510.032172, 50.233784, 307.044111
688, 473.488260, 196.125259, 307.044111
689, 470.601137, 194.929373, 307.023356
690, 473.488260, 196.125259, 270.113993
691, 490.431922, 148.770897, 307.044111
692, 426.128176, 284.729744, 307.044111
693, 423.529834, 282.993587, 307.023356
694, 426.128176, 284.729744, 270.113993
695, 451.984648, 241.590828, 307.044111
696, 362.392225, 362.392225, 307.044111
697, 360.182517, 360.182517, 307.023356
698, 362.392225, 362.392225, 270.113993
699, 396.167857, 325.126558, 307.044111
700, 284.729744, 426.128176, 307.044111
701, 282.993587, 423.529834, 307.023356
702, 284.729744, 426.128176, 270.113993
703, 325.126558, 396.167857, 307.044111
704, 196.125259, 473.488260, 307.044111
705, 194.929373, 470.601137, 307.023356
706, 196.125259, 473.488260, 270.113993
707, 241.590828, 451.984648, 307.044111
708, 99.983790, 502.652456, 307.044111
709, 99.374133, 499.587502, 307.023356
710, 99.983790, 502.652456, 270.113993
711, 148.770897, 490.431922, 307.044111
712, 0.000000, 512.500000, 307.044111
713, 0.000000, 509.375000, 307.023356
714, 0.000000, 512.500000, 270.113993
715, 50.233784, 510.032172, 307.044111
716, 518.750000, 0.000000, 307.085622
717, 508.782364, 101.203105, 307.085622
718, 515.625000, 0.000000, 307.064866
719, 518.750000, 0.000000, 270.150511
720, 505.717410, 100.593447, 307.064866
721, 508.782364, 101.203105, 270.150511
722, 516.252077, 50.846392, 307.085622
723, 479.262507, 198.517031, 307.085622
724, 476.375384, 197.321145, 307.064866
725, 479.262507, 198.517031, 270.150511
726, 496.412799, 150.585176, 307.085622
727, 431.324861, 288.202058, 307.085622
728, 428.726519, 286.465901, 307.064866
729, 431.324861, 288.202058, 270.150511
730, 457.496656, 244.537057, 307.085622
731, 366.811643, 366.811643, 307.085622
732, 364.601934, 364.601934, 307.064866
733, 366.811643, 366.811643, 270.150511
734, 400.999173, 329.091516, 307.085622
735, 288.202058, 431.324861, 307.085622
736, 286.465901, 428.726519, 307.064866
737, 288.202058, 431.324861, 270.150511
738, 329.091516, 400.999173, 307.085622
739, 198.517031, 479.262507, 307.085622
740, 197.321145, 476.375384, 307.064866
741, 198.517031, 479.262507, 270.150511
742, 244.537057, 457.496656, 307.085622
743, 101.203105, 508.782364, 307.085622
744, 100.593447, 505.717410, 307.064866
745, 101.203105, 508.782364, 270.150511
746, 150.585176, 496.412799, 307.085622
747, 0.000000, 518.750000, 307.085622
748, 0.000000, 515.625000, 307.064866
749, 0.000000, 518.750000, 270.150511
750, 50.846392, 516.252077, 307.085622
751, 525.000000, 0.000000, 307.127133
752, 514.912272, 102.422419, 307.127133
753, 521.875000, 0.000000, 307.106377
754, 525.000000, 0.000000, 270.187029
755, 511.847318, 101.812762, 307.106377
756, 514.912272, 102.422419, 270.187029
757, 522.471982, 51.458999, 307.127133
758, 485.036755, 200.908802, 307.127133
759, 482.149631, 199.712916, 307.106377
760, 485.036755, 200.908802, 270.187029
761, 502.393676, 152.399456, 307.127133
762, 436.521546, 291.674372, 307.127133
763, 433.923204, 289.938215, 307.106377
764, 436.521546, 291.674372, 270.187029
765, 463.008664, 247.483287, 307.127133
766, 371.231060, 371.231060, 307.127133
767, 369.021351, 369.021351, 307.106377
768, 371.231060, 371.231060, 270.187029
769, 405.830488, 333.056474, 307.127133
770, 291.674372, 436.521546, 307.127133
771, 289.938215, 433.923204, 307.106377
772, 291.674372, 436.521546, 270.187029
773, 333.056474, 405.830488, 307.127133
774, 200.908802, 485.036755, 307.127133
775, 199.712916, 482.149631, 307.106377
776, 200.908802, 485.036755, 270.187029
777, 247.483287, 463.008664, 307.127133
778, 102.422419, 514.912272, 307.127133
779, 101.812762, 511.847318, 307.106377
780, 102.422419, 514.912272, 270.187029
781, 152.399456, 502.393676, 307.127133
782, 0.000000, 525.000000, 307.127133
783, 0.000000, 521.875000, 307.106377
784, 0.000000, 525.000000, 270.187029
785, 51.458999, 522.471982, 307.127133
786, 500.000000, 0.000000, 379.527337
787, 506.250000, 0.000000, 379.578661
788, 490.392640, 97.545161, 379.527337
789, 496.522548, 98.764476, 379.578661
790, 500.000000, 0.000000, 343.457650
791, 503.125000, 0.000000, 379.552999
792, 506.250000, 0.000000, 343.504097
793, 490.392640, 97.545161, 343.457650
794, 493.457594, 98.154818, 379.552999
795, 496.522548, 98.764476, 343.504097
796, 497.592363, 49.008570, 379.527337
797, 503.812268, 49.621177, 379.578661
798, 461.939766, 191.341716, 379.527337
799, 467.714013, 193.733488, 379.578661
800, 461.939766, 191.341716, 343.457650
801, 464.826890, 192.537602, 379.552999
802, 467.714013, 193.733488, 343.504097
803, 478.470168, 145.142339, 379.527337
804, 484.451045, 146.956618, 379.578661
805, 415.734806, 277.785117, 379.527337
806, 420.931491, 281.257430, 379.578661
807, 415.734806, 277.785117, 343.457650
808, 418.333149, 279.521273, 379.552999
809, 420.931491, 281.257430, 343.504097
810, 440.960632, 235.698368, 379.527337
811, 446.472640, 238.644598, 379.578661
812, 353.553391, 353.553391, 379.527337
813, 357.972808, 357.972808, 379.578661
814, 353.553391, 353.553391, 343.457650
815, 355.763099, 355.763099, 379.552999
816, 357.972808, 357.972808, 343.504097
817, 386.505227, 317.196642, 379.527337
818, 391.336542, 321.161600, 379.578661
819, 277.785117, 415.734806, 379.527337
820, 281.257430, 420.931491, 379.578661
821, 277.785117, 415.734806, 343.457650
822, 279.521273, 418.333149, 379.552999
823, 281.257430, 420.931491, 343.504097
824, 317.196642, 386.505227, 379.527337
825, 321.161600, 391.336542, 379.578661
826, 191.341716, 461.939766, 379.527337
827, 193.733488, 467.714013, 379.578661
828, 191.341716, 461.939766, 343.457650
829, 192.537602, 464.826890, 379.552999
830, 193.733488, 467.714013, 343.504097
831, 235.698368, 440.960632, 379.527337
832, 238.644598, 446.472640, 379.578661
833, 97.545161, 490.392640, 379.527337
834, 98.764476, 496.522548, 379.578661
835, 97.545161, 490.392640, 343.457650
836, 98.154818, 493.457594, 379.552999
837, 98.764476, 496.522548, 343.504097
838, 145.142339, 478.470168, 379.527337
839, 146.956618, 484.451045, 379.578661
840, 0.000000, 500.000000, 379.527337
841, 0.000000, 506.250000, 379.578661
842, 0.000000, 500.000000, 343.457650
843, 0.000000, 503.125000, 379.552999
844, 0.000000, 506.250000, 343.504097
845, 49.008570, 497.592363, 379.527337
846, 49.621177, 503.812268, 379.578661
847, 512.500000, 0.000000, 379.629985
848, 502.652456, 99.983790, 379.629985
849, 509.375000, 0.000000, 379.604323
850, 512.500000, 0.000000, 343.550543
851, 499.587502, 99.374133, 379.604323
852, 502.652456, 99.983790, 343.550543
853, 510.032172, 50.233784, 379.629985
854, 473.488260, 196.125259, 379.629985
855, 470.601137, 194.929373, 379.604323
856, 473.488260, 196.125259, 343.550543
857, 490.431922, 148.770897, 379.629985
858, 426.128176, 284.729744, 379.629985
859, 423.529834, 282.993587, 379.604323
860, 426.128176, 284.729744, 343.550543
861, 451.984648, 241.590828, 379.629985
862, 362.392225, 362.392225, 379.629985
863, 360.182517, 360.182517, 379.604323
864, 362.392225, 362.392225, 343.550543
865, 396.167857, 325.126558, 379.629985
866, 284.729744, 426.128176, 379.629985
867, 282.993587, 423.529834, 379.604323
868, 284.729744, 426.128176, 343.550543
869, 325.126558, 396.167857, 379.629985
870, 196.125259, 473.488260, 379.629985
871, 194.929373, 470.601137, 379.604323
872, 196.125259, 473.488260, 343.550543
873, 241.590828, 451.984648, 379.629985
874, 99.983790, 502.652456, 379.629985
875, 99.374133, 499.587502, 379.604323
876, 99.983790, 502.652456, 343.550543
877, 148.770897, 490.431922, 379.629985
878, 0.000000, 512.500000, 379.629985
879, 0.000000, 509.375000, 379.604323
880, 0.000000, 512.500000, 343.550543
881, 50.233784, 510.032172, 379.629985
882, 518.750000, 0.000000, 379.681309
883, 508.782364, 101.203105, 379.681309
884, 515.625000, 0.000000, 379.655647
885, 518.750000, 0.000000, 343.596989
886, 505.717410, 100.593447, 379.655647
887, 508.782364, 101.203105, 343.596989
888, 516.252077, 50.846392, 379.681309
889, 479.262507, 198.517031, 379.681309
890, 476.375384, 197.321145, 379.655647
891, 479.262507, 198.517031, 343.596989
892, 496.412799, 150.585176, 379.681309
893, 431.324861, 288.202058, 379.681309
894, 428.726519, 286.465901, 379.655647
895, 431.324861, 288.202058, 343.596989
896, 457.496656, 244.537057, 379.681309
897, 366.811643, 366.811643, 379.681309
898, 364.601934, 364.601934, 379.655647
899, 366.811643, 366.811643, 343.596989
900, 400.999173, 329.091516, 379.681309
901, 288.202058, 431.324861, 379.681309
902, 286.465901, 428.726519, 379.655647
903, 288.202058, 431.324861, 343.596989
904, 329.091516, 400.999173, 379.681309
905, 198.517031, 479.262507, 379.681309
906, 197.321145, 476.375384, 379.655647
907, 198.517031, 479.262507, 343.596989
908, 244.537057, 457.496656, 379.681309
909, 101.203105, 508.782364, 379.681309
910, 100.593447, 505.717410, 379.655647
911, 101.203105, 508.782364, 343.596989
912, 150.585176, 496.412799, 379.681309
913, 0.000000, 518.750000, 379.681309
914, 0.000000, 515.625000, 379.655647
915, 0.000000, 518.750000, 343.596989
916, 50.846392, 516.252077, 379.681309
917, 525.000000, 0.000000, 379.732633
918, 514.912272, 102.422419, 379.732633
919, 521.875000, 0.000000, 379.706971
920, 525.000000, 0.000000, 343.643435
921, 511.847318, 101.812762, 379.706971
922, 514.912272, 102.422419, 343.643435
923, 522.471982, 51.458999, 379.732633
924, 485.036755, 200.908802, 379.732633
925, 482.149631, 199.712916, 379.706971
926, 485.036755, 200.908802, 343.643435
927, 502.393676, 152.399456, 379.732633
928, 436.521546, 291.674372, 379.732633
929, 433.923204, 289.938215, 379.706971
930, 436.521546, 291.674372, 343.643435
931, 463.008664, 247.483287, 379.732633
932, 371.231060, 371.231060, 379.732633
933, 369.021351, 369.021351, 379.706971
934, 371.231060, 371.231060, 343.643435
935, 405.830488, 333.056474, 379.732633
936, 291.674372, 436.521546, 379.732633
937, 289.938215, 433.923204, 379.706971
938, 291.674372, 436.521546, 343.643435
939, 333.056474, 405.830488, 379.732633
940, 200.908802, 485.036755, 379.732633
941, 199.712916, 482.149631, 379.706971
942, 200.908802, 485.036755, 343.643435
943, 247.483287, 463.008664, 379.732633
944, 102.422419, 514.912272, 379.732633
945, 101.812762, 511.847318, 379.706971
946, 102.422419, 514.912272, 343.643435
947, 152.399456, 502.393676, 379.732633
948, 0.000000, 525.000000, 379.732633
949, 0.000000, 521.875000, 379.706971
950, 0.000000, 525.000000, 343.643435
951, 51.458999, 522.471982, 379.732633
952, 500.000000, 0.000000, 450.372409
953, 506.250000, 0.000000, 450.433313
954, 490.392640, 97.545161, 450.372409
955, 496.522548, 98.764476, 450.433313
956, 500.000000, 0.000000, 415.166753
957, 503.125000, 0.000000, 450.402861
958, 506.250000, 0.000000, 415.222897
959, 490.392640, 97.545161, 415.166753
960, 493.457594, 98.154818, 450.402861
961, 496.522548, 98.764476, 415.222897
962, 497.592363, 49.008570, 450.372409
963, 503.812268, 49.621177, 450.433313
964, 461.939766, 191.341716, 450.372409
965, 467.714013, 193.733488, 450.433313
966, 461.939766, 191.341716, 415.166753
967, 464.826890, 192.537602, 450.402861
968, 467.714013, 193.733488, 415.222897
969, 478.470168, 145.142339, 450.372409
970, 484.451045, 146.956618, 450.433313
971, 415.734806, 277.785117, 450.372409
972, 420.931491, 281.257430, 450.433313
973, 415.734806, 277.785117, 415.166753
974, 418.333149, 279.521273, 450.402861
975, 420.931491, 281.257430, 415.222897
976, 440.960632, 235.698368, 450.372409
977, 446.472640, 238.644598, 450.433313
978, 353.553391, 353.553391, 450.372409
979, 357.972808, 357.972808, 450.433313
980, 353.553391, 353.553391, 415.166753
981, 355.763099, 355.763099, 450.402861
982, 357.972808, 357.972808, 415.222897
983, 386.505227, 317.196642, 450.372409
984, 391.336542, 321.161600, 450.433313
985, 277.785117, 415.734806, 450.372409
986, 281.257430, 420.931491, 450.433313
987, 277.785117, 415.734806, 415.166753
988, 279.521273, 418.333149, 450.402861
989, 281.257430, 420.931491, 415.222897
990, 317.196642, 386.505227, 450.372409
991, 321.161600, 391.336542, 450.433313
992, 191.341716, 461.939766, 450.372409
993, 193.733488, 467.714013, 450.433313
994, 191.341716, 461.939766, 415.166753
995, 192.537602, 464.826890, 450.402861
996, 193.733488, 467.714013, 415.222897
997, 235.698368, 440.960632, 450.372409
998, 238.644598, 446.472640, 450.433313
999, 97.545161, 490.392640, 450.372409
1000, 98.764476, 496.522548, 450.433313
1001, 97.545161, 490.392640, 415.166753
1002, 98.154818, 493.457594, 450.402861
1003, 98.764476, 496.522548, 415.222897
1004, 145.142339, 478.470168, 450.372409
1005, 146.956618, 484.451045, 450.433313
1006, 0.000000, 500.000000, 450.372409
1007, 0.000000, 506.250000, 450.433313
1008, 0.000000, 500.000000, 415.166753
1009, 0.000000, 503.125000, 450.402861
1010, 0.000000, 506.250000, 415.222897
1011, 49.008570, 497.592363, 450.372409
1012, 49.621177, 503.812268, 450.433313
1013, 512.500000, 0.000000, 450.494218
1014, 502.652456, 99.983790, 450.494218
1015, 509.375000, 0.000000, 450.463766
1016, 512.500000, 0.000000, 415.279040
1017, 499.587502, 99.374133, 450.463766
1018, 502.652456, 99.983790, 415.279040
1019, 510.032172, 50.233784, 450.494218
1020, 473.488260, 196.125259, 450.494218
1021, 470.601137, 194.929373, 450.463766
1022, 473.488260, 196.125259, 415.279040
1023, 490.431922, 148.770897, 450.494218
1024, 426.128176, 284.729744, 450.494218
1025, 423.529834, 282.993587, 450.463766
1026, 426.128176, 284.729744, 415.279040
1027, 451.984648, 241.590828, 450.494218
1028, 362.392225, 362.392225, 450.494218
1029, 360.182517, 360.182517, 450.463766
1030, 362.392225, 362.392225, 415.279040
1031, 396.167857, 325.126558, 450.494218
1032, 284.729744, 426.128176, 450.494218
1033, 282.993587, 423.529834, 450.463766
1034, 284.729744, 426.128176, 415.279040
1035, 325.126558, 396.167857, 450.494218
1036, 196.125259, 473.488260, 450.494218
1037, 194.929373, 470.601137, 450.463766
1038, 196.125259, 473.488260, 415.279040
1039, 241.590828, 451.984648, 450.494218
1040, 99.983790, 502.652456, 450.494218
1041, 99.374133, 499.587502, 450.463766
1042, 99.983790, 502.652456, 415.279040
1043, 148.770897, 490.431922, 450.494218
1044, 0.000000, 512.500000, 450.494218
1045, 0.000000, 509.375000, 450.463766
1046, 0.000000, 512.500000, 415.279040
1047, 50.233784, 510.032172, 450.494218
1048, 518.750000, 0.000000, 450.555122
1049, 508.782364, 101.203105, 450.555122
1050, 515.625000, 0.000000, 450.524670
1051, 518.750000, 0.000000, 415.335184
1052, 505.717410, 100.593447, 450.524670
1053, 508.782364, 101.203105, 415.335184
1054, 516.252077, 50.846392, 450.555122
1055, 479.262507, 198.517031, 450.555122
1056, 476.375384, 197.321145, 450.524670
1057, 479.262507, 198.517031, 415.335184
1058, 496.412799, 150.585176, 450.555122
1059, 431.324861, 288.202058, 450.555122
1060, 428.726519, 286.465901, 450.524670
1061, 431.324861, 288.202058, 415.335184
1062, 457.496656, 244.537057, 450.555122
1063, 366.811643, 366.811643, 450.555122
1064, 364.601934, 364.601934, 450.524670
1065, 366.811643, 366.811643, 415.335184
1066, 400.999173, 329.091516, 450.555122
1067, 288.202058, 431.324861, 450.555122
1068, 286.465901, 428.726519, 450.524670
1069, 288.202058, 431.324861, 415.335184
1070, 329.091516, 400.999173, 450.555122
1071, 198.517031, 479.262507, 450.555122
1072, 197.321145, 476.375384, 450.524670
1073, 198.517031, 479.262507, 415.335184
1074, 244.537057, 457.496656, 450.555122
1075, 101.203105, 508.782364, 450.555122
1076, 100.593447, 505.717410, 450.524670
1077, 101.203105, 508.782364, 415.335184
1078, 150.585176, 496.412799, 450.555122
1079, 0.000000, 518.750000, 450.555122
1080, 0.000000, 515.625000, 450.524670
1081, 0.000000, 518.750000, 415.335184
1082, 50.846392, 516.252077, 450.555122
1083, 525.000000, 0.000000, 450.616027
1084, 514.912272, 102.422419, 450.616027
1085, 521.875000, 0.000000, 450.585575
1086, 525.000000, 0.000000, 415.391328
1087, 511.847318, 101.812762, 450.585575
1088, 514.912272, 102.422419, 415.391328
1089, 522.471982, 51.458999, 450.616027
1090, 485.036755, 200.908802, 450.616027
1091, 482.149631, 199.712916, 450.585575
1092, 485.036755, 200.908802, 415.391328
1093, 502.393676, 152.399456, 450.616027
1094, 436.521546, 291.674372, 450.616027
1095, 433.923204, 289.938215, 450.585575
1096, 436.521546, 291.674372, 415.391328
1097, 463.008664, 247.483287, 450.616027
1098, 371.231060, 371.231060, 450.616027
1099, 369.021351, 369.021351, 450.585575
1100, 371.231060, 371.231060, 415.391328
1101, 405.830488, 333.056474, 450.616027
1102, 291.674372, 436.521546, 450.616027
1103, 289.938215, 433.923204, 450.585575
1104, 291.674372, 436.521546, 415.391328
1105, 333.056474, 405.830488, 450.616027
1106, 200.908802, 485.036755, 450.616027
1107, 199.712916, 482.149631, 450.585575
1108, 200.908802, 485.036755, 415.391328
1109, 247.483287, 463.008664, 450.616027
1110, 102.422419, 514.912272, 450.616027
1111, 101.812762, 511.847318, 450.585575
1112, 102.422419, 514.912272, 415.391328
1113, 152.399456, 502.393676, 450.616027
1114, 0.000000, 525.000000, 450.616027
1115, 0.000000, 521.875000, 450.585575
1116, 0.000000, 525.000000, 415.391328
1117, 51.458999, 522.471982, 450.616027
1118, 500.000000, 0.000000, 519.467960
1119, 506.250000, 0.000000, 519.538209
1120, 490.392640, 97.545161, 519.467960
1121, 496.522548, 98.764476, 519.538209
1122, 500.000000, 0.000000, 485.140711
1123, 503.125000, 0.000000, 519.503085
1124, 506.250000, 0.000000, 485.206317
1125, 490.392640, 97.545161, 485.140711
1126, 493.457594, 98.154818, 519.503085
1127, 496.522548, 98.764476, 485.206317
1128, 497.592363, 49.008570, 519.467960
1129, 503.812268, 49.621177, 519.538209
1130, 461.939766, 191.341716, 519.467960
1131, 467.714013, 193.733488, 519.538209
1132, 461.939766, 191.341716, 485.140711
1133, 464.826890, 192.537602, 519.503085
1134, 467.714013, 193.733488, 485.206317
1135, 478.470168, 145.142339, 519.467960
1136, 484.451045, 146.956618, 519.538209
1137, 415.734806, 277.785117, 519.467960
1138, 420.931491, 281.257430, 519.538209
1139, 415.734806, 277.785117, 485.140711
1140, 418.333149, 279.521273, 519.503085
1141, 420.931491, 281.257430, 485.206317
1142, 440.960632, 235.698368, 519.467960
1143, 446.472640, 238.644598, 519.538209
1144, 353.553391, 353.553391, 519.467960
1145, 357.972808, 357.972808, 519.538209
1146, 353.553391, 353.553391, 485.140711
1147, 355.763099, 355.763099, 519.503085
1148, 357.972808, 357.972808, 485.206317
1149, 386.505227, 317.196642, 519.467960
1150, 391.336542, 321.161600, 519.538209
1151, 277.785117, 415.734806, 519.467960
1152, 281.257430, 420.931491, 519.538209
1153, 277.785117, 415.734806, 485.140711
1154, 279.521273, 418.333149, 519.503085
1155, 281.257430, 420.931491, 485.206317
1156, 317.196642, 386.505227, 519.467960
1157, 321.161600, 391.336542, 519.538209
1158, 191.341716, 461.939766, 519.467960
1159, 193.733488, 467.714013, 519.538209
1160, 191.341716, 461.939766, 485.140711
1161, 192.537602, 464.826890, 519.503085
1162, 193.733488, 467.714013, 485.206317
1163, 235.698368, 440.960632, 519.467960
1164, 238.644598, 446.472640, 519.538209
1165, 97.545161, 490.392640, 519.467960
1166, 98.764476, 496.522548, 519.538209
1167, 97.545161, 490.392640, 485.140711
1168, 98.154818, 493.457594, 519.503085
1169, 98.764476, 496.522548, 485.206317
1170, 145.142339, 478.470168, 519.467960
1171, 146.956618, 484.451045, 519.538209
1172, 0.000000, 500.000000, 519.467960
1173, 0.000000, 506.250000, 519.538209
1174, 0.000000, 500.000000, 485.140711
1175, 0.000000, 503.125000, 519.503085
1176, 0.000000, 506.250000, 485.206317
1177, 49.008570, 497.592363, 519.467960
1178, 49.621177, 503.812268, 519.538209
1179, 512.500000, 0.000000, 519.608457
1180, 502.652456, 99.983790, 519.608457
1181, 509.375000, 0.000000, 519.573333
1182, 512.500000, 0.000000, 485.271924
1183, 499.587502, 99.374133, 519.573333
1184, 502.652456, 99.983790, 485.271924
1185, 510.032172, 50.233784, 519.608457
1186, 473.488260, 196.125259, 519.608457
1187, 470.601137, 194.929373, 519.573333
1188, 473.488260, 196.125259, 485.271924
1189, 490.431922, 148.770897, 519.608457
1190, 426.128176, 284.729744, 519.608457
1191, 423.529834, 282.993587, 519.573333
1192, 426.128176, 284.729744, 485.271924
1193, 451.984648, 241.590828, 519.608457
1194, 362.392225, 362.392225, 519.608457
1195, 360.182517, 360.182517, 519.573333
1196, 362.392225, 362.392225, 485.271924
1197, 396.167857, 325.126558, 519.608457
1198, 284.729744, 426.128176, 519.608457
1199, 282.993587, 423.529834, 519.573333
1200, 284.729744, 426.128176, 485.271924
1201, 325.126558, 396.167857, 519.608457
1202, 196.125259, 473.488260, 519.608457
1203, 194.929373, 470.601137, 519.573333
1204, 196.125259, 473.488260, 485.271924
1205, 241.590828, 451.984648, 519.608457
1206, 99.983790, 502.652456, 519.608457
1207, 99.374133, 499.587502, 519.573333
1208, 99.983790, 502.652456, 485.271924
1209, 148.770897, 490.431922, 519.608457
1210, 0.000000, 512.500000, 519.608457
1211, 0.000000, 509.375000, 519.573333
1212, 0.000000, 512.500000, 485.271924
1213, 50.233784, 510.032172, 519.608457
1214, 518.750000, 0.000000, 519.678705
1215, 508.782364, 101.203105, 519.678705
1216, 515.625000, 0.000000, 519.643581
1217, 518.750000, 0.000000, 485.337530
1218, 505.717410, 100.593447, 519.643581
1219, 508.782364, 101.203105, 485.337530
1220, 516.252077, 50.846392, 519.678705
1221, 479.262507, 198.517031, 519.678705
1222, 476.375384, 197.321145, 519.643581
1223, 479.262507, 198.517031, 485.337530
1224, 496.412799, 150.585176, 519.678705
1225, 431.324861, 288.202058, 519.678705
1226, 428.726519, 286.465901, 519.643581
1227, 431.324861, 288.202058, 485.337530
1228, 457.496656, 244.537057, 519.678705
1229, 366.811643, 366.811643, 519.678705
1230, 364.601934, 364.601934, 519.643581
1231, 366.811643, 366.811643, 485.337530
1232, 400.999173, 329.091516, 519.678705
1233, 288.202058, 431.324861, 519.678705
1234, 286.465901, 428.726519, 519.643581
1235, 288.202058, 431.324861, 485.337530
1236, 329.091516, 400.999173, 519.678705
1237, 198.517031, 479.262507, 519.678705
1238, 197.321145, 476.375384, 519.643581
1239, 198.517031, 479.262507, 485.337530
1240, 244.537057, 457.496656, 519.678705
1241, 101.203105, 508.782364, 519.678705
1242, 100.593447, 505.717410, 519.643581
1243, 101.203105, 508.782364, 485.337530
1244, 150.585176, 496.412799, 519.678705
1245, 0.000000, 518.750000, 519.678705
1246, 0.000000, 515.625000, 519.643581
1247, 0.000000, 518.750000, 485.337530
1248, 50.846392, 516.252077, 519.678705
1249, 525.000000, 0.000000, 519.748954
1250, 514.912272, 102.422419, 519.748954
1251, 521.875000, 0.000000, 519.713830
1252, 525.000000, 0.000000, 485.403136
1253, 511.847318, 101.812762, 519.713830
1254, 514.912272, 102.422419, 485.403136
1255, 522.471982, 51.458999, 519.748954
1256, 485.036755, 200.908802, 519.748954
1257, 482.149631, 199.712916, 519.713830
1258, 485.036755, 200.908802, 485.403136
1259, 502.393676, 152.399456, 519.748954
1260, 436.521546, 291.674372, 519.748954
1261, 433.923204, 289.938215, 519.713830
1262, 436.521546, 291.674372, 485.403136
1263, 463.008664, 247.483287, 519.748954
1264, 371.231060, 371.231060, 519.748954
1265, 369.021351, 369.021351, 519.713830
1266, 371.231060, 371.231060, 485.403136
1267, 405.830488, 333.056474, 519.748954
1268, 291.674372, 436.521546, 519.748954
1269, 289.938215, 433.923204, 519.713830
1270, 291.674372, 436.521546, 485.403136
1271, 333.056474, 405.830488, 519.748954
1272, 200.908802, 485.036755, 519.748954
1273, 199.712916, 482.149631, 519.713830
1274, 200.908802, 485.036755, 485.403136
1275, 247.483287, 463.008664, 519.748954
1276, 102.422419, 514.912272, 519.748954
1277, 101.812762, 511.847318, 519.713830
1278, 102.422419, 514.912272, 485.403136
1279, 152.399456, 502.393676, 519.748954
1280, 0.000000, 525.000000, 519.748954
1281, 0.000000, 521.875000, 519.713830
1282, 0.000000, 525.000000, 485.403136
1283, 51.458999, 522.471982, 519.748954
1284, 500.000000, 0.000000, 586.783939
1285, 506.250000, 0.000000, 586.863291
1286, 490.392640, 97.545161, 586.783939
1287, 496.522548, 98.764476, 586.863291
1288, 500.000000, 0.000000, 553.350346
1289, 503.125000, 0.000000, 586.823615
1290, 506.250000, 0.000000, 553.425176
1291, 490.392640, 97.545161, 553.350346
1292, 493.457594, 98.154818, 586.823615
1293, 496.522548, 98.764476, 553.425176
1294, 497.592363, 49.008570, 586.783939
1295, 503.812268, 49.621177, 586.863291
1296, 461.939766, 191.341716, 586.783939
1297, 467.714013, 193.733488, 586.863291
1298, 461.939766, 191.341716, 553.350346
1299, 464.826890, 192.537602, 586.823615
1300, 467.714013, 193.733488, 553.425176
1301, 478.470168, 145.142339, 586.783939
1302, 484.451045, 146.956618, 586.863291
1303, 415.734806, 277.785117, 586.783939
1304, 420.931491, 281.257430, 586.863291
1305, 415.734806, 277.785117, 553.350346
1306, 418.333149, 279.521273, 586.823615
1307, 420.931491, 281.257430, 553.425176
1308, 440.960632, 235.698368, 586.783939
1309, 446.472640, 238.644598, 586.863291
1310, 353.553391, 353.553391, 586.783939
1311, 357.972808, 357.972808, 586.863291
1312, 353.553391, 353.553391, 553.350346
1313, 355.763099, 355.763099, 586.823615
1314, 357.972808, 357.972808, 553.425176
1315, 386.505227, 317.196642, 586.783939
1316, 391.336542, 321.161600, 586.863291
1317, 277.785117, 415.734806, 586.783939
1318, 281.257430, 420.931491, 586.863291
1319, 277.785117, 415.734806, 553.350346
1320, 279.521273, 418.333149, 586.823615
1321, 281.257430, 420.931491, 553.425176
1322, 317.196642, 386.505227, 586.783939
1323, 321.161600, 391.336542, 586.863291
1324, 191.341716, 461.939766, 586.783939
1325, 193.733488, 467.714013, 586.863291
1326, 191.341716, 461.939766, 553.350346
1327, 192.537602, 464.826890, 586.823615
1328, 193.733488, 467.714013, 553.425176
1329, 235.698368, 440.960632, 586.783939
1330, 238.644598, 446.472640, 586.863291
1331, 97.545161, 490.392640, 586.783939
1332, 98.764476, 496.522548, 586.863291
1333, 97.545161, 490.392640, 553.350346
1334, 98.154818, 493.457594, 586.823615
1335, 98.764476, 496.522548, 553.425176
1336, 145.142339, 478.470168, 586.783939
1337, 146.956618, 484.451045, 586.863291
1338, 0.000000, 500.000000, 586.783939
1339, 0.000000, 506.250000, 586.863291
1340, 0.000000, 500.000000, 553.350346
1341, 0.000000, 503.125000, 586.823615
1342, 0.000000, 506.250000, 553.425176
1343, 49.008570, 497.592363, 586.783939
1344, 49.621177, 503.812268, 586.863291
1345, 512.500000, 0.000000, 586.942642
1346, 502.652456, 99.983790, 586.942642
1347, 509.375000, 0.000000, 586.902967
1348, 512.500000, 0.000000, 553.500007
1349, 499.587502, 99.374133, 586.902967
1350, 502.652456, 99.983790, 553.500007
1351, 510.032172, 50.233784, 586.942642
1352, 473.488260, 196.125259, 586.942642
1353, 470.601137, 194.929373, 586.902967
1354, 473.488260, 196.125259, 553.500007
1355, 490.431922, 148.770897, 586.942642
1356, 426.128176, 284.729744, 586.942642
1357, 423.529834, 282.993587, 586.902967
1358, 426.128176, 284.729744, 553.500007
1359, 451.984648, 241.590828, 586.942642
1360, 362.392225, 362.392225, 586.942642
1361, 360.182517, 360.182517, 586.902967
1362, 362.392225, 362.392225, 553.500007
1363, 396.167857, 325.126558, 586.942642
1364, 284.729744, 426.128176, 586.942642
1365, 282.993587, 423.529834, 586.902967
1366, 284.729744, 426.128176, 553.500007
1367, 325.126558, 396.167857, 586.942642
1368, 196.125259, 473.488260, 586.942642
1369, 194.929373, 470.601137, 586.902967
1370, 196.125259, 473.488260, 553.500007
1371, 241.590828, 451.984648, 586.942642
1372, 99.983790, 502.652456, 586.942642
1373, 99.374133, 499.587502, 586.902967
1374, 99.983790, 502.652456, 553.500007
1375, 148.770897, 490.431922, 586.942642
1376, 0.000000, 512.500000, 586.942642
1377, 0.000000, 509.375000, 586.902967
1378, 0.000000, 512.500000, 553.500007
1379, 50.233784, 510.032172, 586.942642
1380, 518.750000, 0.000000, 587.021994
1381, 508.782364, 101.203105, 587.021994
1382, 515.625000, 0.000000, 586.982318
1383, 518.750000, 0.000000, 553.574837
1384, 505.717410, 100.593447, 586.982318
1385, 508.782364, 101.203105, 553.574837
1386, 516.252077, 50.846392, 587.021994
1387, 479.262507, 198.517031, 587.021994
1388, 476.375384, 197.321145, 586.982318
1389, 479.262507, 198.517031, 553.574837
1390, 496.412799, 150.585176, 587.021994
1391, 431.324861, 288.202058, 587.021994
1392, 428.726519, 286.465901, 586.982318
1393, 431.324861, 288.202058, 553.574837
1394, 457.496656, 244.537057, 587.021994
1395, 366.811643, 366.811643, 587.021994
1396, 364.601934, 364.601934, 586.982318
1397, 366.811643, 366.811643, 553.574837
1398, 400.999173, 329.091516, 587.021994
1399, 288.202058, 431.324861, 587.021994
1400, 286.465901, 428.726519, 586.982318
1401, 288.202058, 431.324861, 553.574837
1402, 329.091516, 400.999173, 587.021994
1403, 198.517031, 479.262507, 587.021994
1404, 197.321145, 476.375384, 586.982318
1405, 198.517031, 479.262507, 553.574837
1406, 244.537057, 457.496656, 587.021994
1407, 101.203105, 508.782364, 587.021994
1408, 100.593447, 505.717410, 586.982318
1409, 101.203105, 508.782364, 553.574837
1410, 150.585176, 496.412799, 587.021994
1411, 0.000000, 518.750000, 587.021994
1412, 0.000000, 515.625000, 586.982318
1413, 0.000000, 518.750000, 553.574837
1414, 50.846392, 516.252077, 587.021994
1415, 525.000000, 0.000000, 587.101346
1416, 514.912272, 102.422419, 587.101346
1417, 521.875000, 0.000000, 587.061670
1418, 525.000000, 0.000000, 553.649667
1419, 511.847318, 101.812762, 587.061670
1420, 514.912272, 102.422419, 553.649667
1421, 522.471982, 51.458999, 587.101346
1422, 485.036755, 200.908802, 587.101346
1423, 482.149631, 199.712916, 587.061670
1424, 485.036755, 200.908802, 553.649667
1425, 502.393676, 152.399456, 587.101346
1426, 436.521546, 291.674372, 587.101346
1427, 433.923204, 289.938215, 587.061670
1428, 436.521546, 291.674372, 553.649667
1429, 463.008664, 247.483287, 587.101346
1430, 371.231060, 371.231060, 587.101346
1431, 369.021351, 369.021351, 587.061670
1432, 371.231060, 371.231060, 553.649667
1433, 405.830488, 333.056474, 587.101346
1434, 291.674372, 436.521546, 587.101346
1435, 289.938215, 433.923204, 587.061670
1436, 291.674372, 436.521546, 553.649667
1437, 333.056474, 405.830488, 587.101346
1438, 200.908802, 485.036755, 587.101346
1439, 199.712916, 482.149631, 587.061670
1440, 200.908802, 485.036755, 553.649667
1441, 247.483287, 463.008664, 587.101346
1442, 102.422419, 514.912272, 587.101346
1443, 101.812762, 511.847318, 587.061670
1444, 102.422419, 514.912272, 553.649667
1445, 152.399456, 502.393676, 587.101346
1446, 0.000000, 525.000000, 587.101346
1447, 0.000000, 521.875000, 587.061670
1448, 0.000000, 525.000000, 553.649667
1449, 51.458999, 522.471982, 587.101346
1450, 500.000000, 0.000000, 652.288406
1451, 506.250000, 0.000000, 652.376616
1452, 490.392640, 97.545161, 652.288406
1453, 496.522548, 98.764476, 652.376616
1454, 500.000000, 0.000000, 619.764687
1455, 503.125000, 0.000000, 652.332511
1456, 506.250000, 0.000000, 619.848499
1457, 490.392640, 97.545161, 619.764687
1458, 493.457594, 98.154818, 652.332511
1459, 496.522548, 98.764476, 619.848499
1460, 497.592363, 49.008570, 652.288406
1461, 503.812268, 49.621177, 652.376616
1462, 461.939766, 191.341716, 652.288406
1463, 467.714013, 193.733488, 652.376616
1464, 461.939766, 191.341716, 619.764687
1465, 464.826890, 192.537602, 652.332511
1466, 467.714013, 193.733488, 619.848499
1467, 478.470168, 145.142339, 652.288406
1468, 484.451045, 146.956618, 652.376616
1469, 415.734806, 277.785117, 652.288406
1470, 420.931491, 281.257430, 652.376616
1471, 415.734806, 277.785117, 619.764687
1472, 418.333149, 279.521273, 652.332511
1473, 420.931491, 281.257430, 619.848499
1474, 440.960632, 235.698368, 652.288406
1475, 446.472640, 238.644598, 652.376616
1476, 353.553391, 353.553391, 652.288406
1477, 357.972808, 357.972808, 652.376616
1478, 353.553391, 353.553391, 619.764687
1479, 355.763099, 355.763099, 652.332511
1480, 357.972808, 357.972808, 619.848499
1481, 386.505227, 317.196642, 652.288406
1482, 391.336542, 321.161600, 652.376616
1483, 277.785117, 415.734806, 652.288406
1484, 281.257430, 420.931491, 652.376616
1485, 277.785117, 415.734806, 619.764687
1486, 279.521273, 418.333149, 652.332511
1487, 281.257430, 420.931491, 619.848499
1488, 317.196642, 386.505227, 652.288406
1489, 321.161600, 391.336542, 652.376616
1490, 191.341716, 461.939766, 652.288406
1491, 193.733488, 467.714013, 652.376616
1492, 191.341716, 461.939766, 619.764687
1493, 192.537602, 464.826890, 652.332511
1494, 193.733488, 467.714013, 619.848499
1495, 235.698368, 440.960632, 652.288406
1496, 238.644598, 446.472640, 652.376616
1497, 97.545161, 490.392640, 652.288406
1498, 98.764476, 496.522548, 652.376616
1499, 97.545161, 490.392640, 619.764687
1500, 98.154818, 493.457594, 652.332511
1501, 98.764476, 496.522548, 619.848499
1502, 145.142339, 478.470168, 652.288406
1503, 146.956618, 484.451045, 652.376616
1504, 0.000000, 500.000000, 652.288406
1505, 0.000000, 506.250000, 652.376616
1506, 0.000000, 500.000000, 619.764687
1507, 0.000000, 503.125000, 652.332511
1508, 0.000000, 506.250000, 619.848499
1509, 49.008570, 497.592363, 652.288406
1510, 49.621177, 503.812268, 652.376616
1511, 512.500000, 0.000000, 652.464826
1512, 502.652456, 99.983790, 652.464826
1513, 509.375000, 0.000000, 652.420721
1514, 512.500000, 0.000000, 619.932310
1515, 499.587502, 99.374133, 652.420721
1516, 502.652456, 99.983790, 619.932310
1517, 510.032172, 50.233784, 652.464826
1518, 473.488260, 196.125259, 652.464826
1519, 470.601137, 194.929373, 652.420721
1520, 473.488260, 196.125259, 619.932310
1521, 490.431922, 148.770897, 652.464826
1522, 426.128176, 284.729744, 652.464826
1523, 423.529834, 282.993587, 652.420721
1524, 426.128176, 284.729744, 619.932310
1525, 451.984648, 241.590828, 652.464826
1526, 362.392225, 362.392225, 652.464826
1527, 360.182517, 360.182517, 652.420721
1528, 362.392225, 362.392225, 619.932310
1529, 396.167857, 325.126558, 652.464826
1530, 284.729744, 426.128176, 652.464826
1531, 282.993587, 423.529834, 652.420721
1532, 284.729744, 426.128176, 619.932310
1533, 325.126558, 396.167857, 652.464826
1534, 196.125259, 473.488260, 652.464826
1535, 194.929373, 470.601137, 652.420721
1536, 196.125259, 473.488260, 619.932310
1537, 241.590828, 451.984648, 652.464826
1538, 99.983790, 502.652456, 652.464826
1539, 99.374133, 499.587502, 652.420721
1540, 99.983790, 502.652456, 619.932310
1541, 148.770897, 490.431922, 652.464826
1542, 0.000000, 512.500000, 652.464826
1543, 0.000000, 509.375000, 652.420721
1544, 0.000000, 512.500000, 619.932310
1545, 50.233784, 510.032172, 652.464826
1546, 518.750000, 0.000000, 652.553035
1547, 508.782364, 101.203105, 652.553035
1548, 515.625000, 0.000000, 652.508930
1549, 518.750000, 0.000000, 620.016122
1550, 505.717410, 100.593447, 652.508930
1551, 508.782364, 101.203105, 620.016122
1552, 516.252077, 50.846392, 652.553035
1553, 479.262507, 198.517031, 652.553035
1554, 476.375384, 197.321145, 652.508930
1555, 479.262507, 198.517031, 620.016122
1556, 496.412799, 150.585176, 652.553035
1557, 431.324861, 288.202058, 652.553035
1558, 428.726519, 286.465901, 652.508930
1559, 431.324861, 288.202058, 620.016122
1560, 457.496656, 244.537057, 652.553035
1561, 366.811643, 366.811643, 652.553035
1562, 364.601934, 364.601934, 652.508930
1563, 366.811643, 366.811643, 620.016122
1564, 400.999173, 329.091516, 652.553035
1565, 288.202058, 431.324861, 652.553035
1566, 286.465901, 428.726519, 652.508930
1567, 288.202058, 431.324861, 620.016122
1568, 329.091516, 400.999173, 652.553035
1569, 198.517031, 479.262507, 652.553035
1570, 197.321145, 476.375384, 652.508930
1571, 198.517031, 479.262507, 620.016122
1572, 244.537057, 457.496656, 652.553035
1573, 101.203105, 508.782364, 652.553035
1574, 100.593447, 505.717410, 652.508930
1575, 101.203105, 508.782364, 620.016122
1576, 150.585176, 496.412799, 652.553035
1577, 0.000000, 518.750000, 652.553035
1578, 0.000000, 515.625000, 652.508930
1579, 0.000000, 518.750000, 620.016122
1580, 50.846392, 516.252077, 652.553035
1581, 525.000000, 0.000000, 652.641245
1582, 514.912272, 102.422419, 652.641245
1583, 521.875000, 0.000000, 652.597140
1584, 525.000000, 0.000000, 620.099934
1585, 511.847318, 101.812762, 652.597140
1586, 514.912272, 102.422419, 620.099934
1587, 522.471982, 51.458999, 652.641245
1588, 485.036755, 200.908802, 652.641245
1589, 482.149631, 199.712916, 652.597140
1590, 485.036755, 200.908802, 620.099934
1591, 502.393676, 152.399456, 652.641245
1592, 436.521546, 291.674372, 652.641245
1593, 433.923204, 289.938215, 652.597140
1594, 436.521546, 291.674372, 620.099934
1595, 463.008664, 247.483287, 652.641245
1596, 371.231060, 371.231060, 652.641245
1597, 369.021351, 369.021351, 652.597140
1598, 371.231060, 371.231060, 620.099934
1599, 405.830488, 333.056474, 652.641245
1600, 291.674372, 436.521546, 652.641245
1601, 289.938215, 433.923204, 652.597140
1602, 291.674372, 436.521546, 620.099934
1603, 333.056474, 405.830488, 652.641245
1604, 200.908802, 485.036755, 652.641245
1605, 199.712916, 482.149631, 652.597140
1606, 200.908802, 485.036755, 620.099934
1607, 247.483287, 463.008664, 652.641245
1608, 102.422419, 514.912272, 652.641245
1609, 101.812762, 511.847318, 652.597140
1610, 102.422419, 514.912272, 620.099934
1611, 152.399456, 502.393676, 652.641245
1612, 0.000000, 525.000000, 652.641245
1613, 0.000000, 521.875000, 652.597140
1614, 0.000000, 525.000000, 620.099934
1615, 51.458999, 522.471982, 652.641245
1616, 500.000000, 0.000000, 715.947318
1617, 506.250000, 0.000000, 716.044137
1618, 490.392640, 97.545161, 715.947318
1619, 496.522548, 98.764476, 716.044137
1620, 500.000000, 0.000000, 684.350773
1621, 503.125000, 0.000000, 715.995728
1622, 506.250000, 0.000000, 684.443318
1623, 490.392640, 97.545161, 684.350773
1624, 493.457594, 98.154818, 715.995728
1625, 496.522548, 98.764476, 684.443318
1626, 497.592363, 49.008570, 715.947318
1627, 503.812268, 49.621177, 716.044137
1628, 461.939766, 191.341716, 715.947318
1629, 467.714013, 193.733488, 716.044137
1630, 461.939766, 191.341716, 684.350773
1631, 464.826890, 192.537602, 715.995728
1632, 467.714013, 193.733488, 684.443318
1633, 478.470168, 145.142339, 715.947318
1634, 484.451045, 146.956618, 716.044137
1635, 415.734806, 277.785117, 715.947318
1636, 420.931491, 281.257430, 716.044137
1637, 415.734806, 277.785117, 684.350773
1638, 418.333149, 279.521273, 715.995728
1639, 420.931491, 281.257430, 684.443318
1640, 440.960632, 235.698368, 715.947318
1641, 446.472640, 238.644598, 716.044137
1642, 353.553391, 353.553391, 715.947318
1643, 357.972808, 357.972808, 716.044137
1644, 353.553391, 353.553391, 684.350773
1645, 355.763099, 355.763099, 715.995728
1646, 357.972808, 357.972808, 684.443318
1647, 386.505227, 317.196642, 715.947318
1648, 391.336542, 321.161600, 716.044137
1649, 277.785117, 415.734806, 715.947318
1650, 281.257430, 420.931491, 716.044137
1651, 277.785117, 415.734806, 684.350773
1652, 279.521273, 418.333149, 715.995728
1653, 281.257430, 420.931491, 684.443318
1654, 317.196642, 386.505227, 715.947318
1655, 321.161600, 391.336542, 716.044137
1656, 191.341716, 461.939766, 715.947318
1657, 193.733488, 467.714013, 716.044137
1658, 191.341716, 461.939766, 684.350773
1659, 192.537602, 464.826890, 715.995728
1660, 193.733488, 467.714013, 684.443318
1661, 235.698368, 440.960632, 715.947318
1662, 238.644598, 446.472640, 716.044137
1663, 97.545161, 490.392640, 715.947318
1664, 98.764476, 496.522548, 716.044137
1665, 97.545161, 490.392640, 684.350773
1666, 98.154818, 493.457594, 715.995728
1667, 98.764476, 496.522548, 684.443318
1668, 145.142339, 478.470168, 715.947318
1669, 146.956618, 484.451045, 716.044137
1670, 0.000000, 500.000000, 715.947318
1671, 0.000000, 506.250000, 716.044137
1672, 0.000000, 500.000000, 684.350773
1673, 0.000000, 503.125000, 715.995728
1674, 0.000000, 506.250000, 684.443318
1675, 49.008570, 497.592363, 715.947318
1676, 49.621177, 503.812268, 716.044137
1677, 512.500000, 0.000000, 716.140955
1678, 502.652456, 99.983790, 716.140955
1679, 509.375000, 0.000000, 716.092546
1680, 512.500000, 0.000000, 684.535864
1681, 499.587502, 99.374133, 716.092546
1682, 502.652456, 99.983790, 684.535864
1683, 510.032172, 50.233784, 716.140955
1684, 473.488260, 196.125259, 716.140955
1685, 470.601137, 194.929373, 716.092546
1686, 473.488260, 196.125259, 684.535864
1687, 490.431922, 148.770897, 716.140955
1688, 426.128176, 284.729744, 716.140955
1689, 423.529834, 282.993587, 716.092546
1690, 426.128176, 284.729744, 684.535864
1691, 451.984648, 241.590828, 716.140955
1692, 362.392225, 362.392225, 716.140955
1693, 360.182517, 360.182517, 716.092546
1694, 362.392225, 362.392225, 684.535864
1695, 396.167857, 325.126558, 716.140955
1696, 284.729744, 426.128176, 716.140955
1697, 282.993587, 423.529834, 716.092546
1698, 284.729744, 426.128176, 684.535864
1699, 325.126558, 396.167857, 716.140955
1700, 196.125259, 473.488260, 716.140955
1701, 194.929373, 470.601137, 716.092546
1702, 196.125259, 473.488260, 684.535864
1703, 241.590828, 451.984648, 716.140955
1704, 99.983790, 502.652456, 716.140955
1705, 99.374133, 499.587502, 716.092546
1706, 99.983790, 502.652456, 684.535864
1707, 148.770897, 490.431922, 716.140955
1708, 0.000000, 512.500000, 716.140955
1709, 0.000000, 509.375000, 716.092546
1710, 0.000000, 512.500000, 684.535864
1711, 50.233784, 510.032172, 716.140955
1712, 518.750000, 0.000000, 716.237774
1713, 508.782364, 101.203105, 716.237774
1714, 515.625000, 0.000000, 716.189365
1715, 518.750000, 0.000000, 684.628410
1716, 505.717410, 100.593447, 716.189365
1717, 508.782364, 101.203105, 684.628410
1718, 516.252077, 50.846392, 716.237774
1719, 479.262507, 198.517031, 716.237774
1720, 476.375384, 197.321145, 716.189365
1721, 479.262507, 198.517031, 684.628410
1722, 496.412799, 150.585176, 716.237774
1723, 431.324861, 288.202058, 716.237774
1724, 428.726519, 286.465901, 716.189365
1725, 431.324861, 288.202058, 684.628410
1726, 457.496656, 244.537057, 716.237774
1727, 366.811643, 366.811643, 716.237774
1728, 364.601934, 364.601934, 716.189365
1729, 366.811643, 366.811643, 684.628410
1730, 400.999173, 329.091516, 716.237774
1731, 288.202058, 431.324861, 716.237774
1732, 286.465901, 428.726519, 716.189365
1733, 288.202058, 431.324861, 684.628410
1734, 329.091516, 400.999173, 716.237774
1735, 198.517031, 479.262507, 716.237774
1736, 197.321145, 476.375384, 716.189365
1737, 198.517031, 479.262507, 684.628410
1738, 244.537057, 457.496656, 716.237774
1739, 101.203105, 508.782364, 716.237774
1740, 100.593447, 505.717410, 716.189365
1741, 101.203105, 508.782364, 684.628410
1742, 150.585176, 496.412799, 716.237774
1743, 0.000000, 518.750000, 716.237774
1744, 0.000000, 515.625000, 716.189365
1745, 0.000000, 518.750000, 684.628410
1746, 50.846392, 516.252077, 716.237774
1747, 525.000000, 0.000000, 716.334593
1748, 514.912272, 102.422419, 716.334593
1749, 521.875000, 0.000000, 716.286183
1750, 525.000000, 0.000000, 684.720955
1751, 511.847318, 101.812762, 716.286183
1752, 514.912272, 102.422419, 684.720955
1753, 522.471982, 51.458999, 716.334593
1754, 485.036755, 200.908802, 716.334593
1755, 482.149631, 199.712916, 716.286183
1756, 485.036755, 200.908802, 684.720955
1757, 502.393676, 152.399456, 716.334593
1758, 436.521546, 291.674372, 716.334593
1759, 433.923204, 289.938215, 716.286183
1760, 436.521546, 291.674372, 684.720955
1761, 463.008664, 247.483287, 716.334593
1762, 371.231060, 371.231060, 716.334593
1763, 369.021351, 369.021351, 716.286183
1764, 371.231060, 371.231060, 684.720955
1765, 405.830488, 333.056474, 716.334593
1766, 291.674372, 436.521546, 716.334593
1767, 289.938215, 433.923204, 716.286183
1768, 291.674372, 436.521546, 684.720955
1769, 333.056474, 405.830488, 716.334593
1770, 200.908802, 485.036755, 716.334593
1771, 199.712916, 482.149631, 716.286183
1772, 200.908802, 485.036755, 684.720955
1773, 247.483287, 463.008664, 716.334593
1774, 102.422419, 514.912272, 716.334593
1775, 101.812762, 511.847318, 716.286183
1776, 102.422419, 514.912272, 684.720955
1777, 152.399456, 502.393676, 716.334593
1778, 0.000000, 525.000000, 716.334593
1779, 0.000000, 521.875000, 716.286183
1780, 0.000000, 525.000000, 684.720955
1781, 51.458999, 522.471982, 716.334593
1782, 500.000000, 0.000000, 777.724285
1783, 506.250000, 0.000000, 777.829457
1784, 490.392640, 97.545161, 777.724285
1785, 496.522548, 98.764476, 777.829457
1786, 500.000000, 0.000000, 747.073419
1787, 503.125000, 0.000000, 777.776871
1788, 506.250000, 0.000000, 747.174447
1789, 490.392640, 97.545161, 747.073419
1790, 493.457594, 98.154818, 777.776871
1791, 496.522548, 98.764476, 747.174447
1792, 497.592363, 49.008570, 777.724285
1793, 503.812268, 49.621177, 777.829457
1794, 461.939766, 191.341716, 777.724285
1795, 467.714013, 193.733488, 777.829457
1796, 461.939766, 191.341716, 747.073419
1797, 464.826890, 192.537602, 777.776871
1798, 467.714013, 193.733488, 747.174447
1799, 478.470168, 145.142339, 777.724285
1800, 484.451045, 146.956618, 777.829457
1801, 415.734806, 277.785117, 777.724285
1802, 420.931491, 281.257430, 777.829457
1803, 415.734806, 277.785117, 747.073419
1804, 418.333149, 279.521273, 777.776871
1805, 420.931491, 281.257430, 747.174447
1806, 440.960632, 235.698368, 777.724285
1807, 446.472640, 238.644598, 777.829457
1808, 353.553391, 353.553391, 777.724285
1809, 357.972808, 357.972808, 777.829457
1810, 353.553391, 353.553391, 747.073419
1811, 355.763099, 355.763099, 777.776871
1812, 357.972808, 357.972808, 747.174447
1813, 386.505227, 317.196642, 777.724285
1814, 391.336542, 321.161600, 777.829457
1815, 277.785117, 415.734806, 777.724285
1816, 281.257430, 420.931491, 777.829457
1817, 277.785117, 415.734806, 747.073419
1818, 279.521273, 418.333149, 777.776871
1819, 281.257430, 420.931491, 747.174447
1820, 317.196642, 386.505227, 777.724285
1821, 321.161600, 391.336542, 777.829457
1822, 191.341716, 461.939766, 777.724285
1823, 193.733488, 467.714013, 777.829457
1824, 191.341716, 461.939766, 747.073419
1825, 192.537602, 464.826890, 777.776871
1826, 193.733488, 467.714013, 747.174447
1827, 235.698368, 440.960632, 777.724285
1828, 238.644598, 446.472640, 777.829457
1829, 97.545161, 490.392640, 777.724285
1830, 98.764476, 496.522548, 777.829457
1831, 97.545161, 490.392640, 747.073419
1832, 98.154818, 493.457594, 777.776871
1833, 98.764476, 496.522548, 747.174447
1834, 145.142339, 478.470168, 777.724285
1835, 146.956618, 484.451045, 777.829457
1836, 0.000000, 500.000000, 777.724285
1837, 0.000000, 506.250000, 777.829457
1838, 0.000000, 500.000000, 747.073419
1839, 0.000000, 503.125000, 777.776871
1840, 0.000000, 506.250000, 747.174447
1841, 49.008570, 497.592363, 777.724285
1842, 49.621177, 503.812268, 777.829457
1843, 512.500000, 0.000000, 777.934630
1844, 502.652456, 99.983790, 777.934630
1845, 509.375000, 0.000000, 777.882044
1846, 512.500000, 0.000000, 747.275474
1847, 499.587502, 99.374133, 777.882044
1848, 502.652456, 99.983790, 747.275474
1849, 510.032172, 50.233784, 777.934630
1850, 473.488260, 196.125259, 777.934630
1851, 470.601137, 194.929373, 777.882044
1852, 473.488260, 196.125259, 747.275474
1853, 490.431922, 148.770897, 777.934630
1854, 426.128176, 284.729744, 777.934630
1855, 423.529834, 282.993587, 777.882044
1856, 426.128176, 284.729744, 747.275474
1857, 451.984648, 241.590828, 777.934630
1858, 362.392225, 362.392225, 777.934630
1859, 360.182517, 360.182517, 777.882044
1860, 362.392225, 362.392225, 747.275474
1861, 396.167857, 325.126558, 777.934630
1862, 284.729744, 426.128176, 777.934630
1863, 282.993587, 423.529834, 777.882044
1864, 284.729744, 426.128176, 747.275474
1865, 325.126558, 396.167857, 777.934630
1866, 196.125259, 473.488260, 777.934630
1867, 194.929373, 470.601137, 777.882044
1868, 196.125259, 473.488260, 747.275474
1869, 241.590828, 451.984648, 777.934630
1870, 99.983790, 502.652456, 777.934630
1871, 99.374133, 499.587502, 777.882044
1872, 99.983790, 502.652456, 747.275474
1873, 148.770897, 490.431922, 777.934630
1874, 0.000000, 512.500000, 777.934630
1875, 0.000000, 509.375000, 777.882044
1876, 0.000000, 512.500000, 747.275474
1877, 50.233784, 510.032172, 777.934630
1878, 518.750000, 0.000000, 778.039803
1879, 508.782364, 101.203105, 778.039803
1880, 515.625000, 0.000000, 777.987217
1881, 518.750000, 0.000000, 747.376502
1882, 505.717410, 100.593447, 777.987217
1883, 508.782364, 101.203105, 747.376502
1884, 516.252077, 50.846392, 778.039803
1885, 479.262507, 198.517031, 778.039803
1886, 476.375384, 197.321145, 777.987217
1887, 479.262507, 198.517031, 747.376502
1888, 496.412799, 150.585176, 778.039803
1889, 431.324861, 288.202058, 778.039803
1890, 428.726519, 286.465901, 777.987217
1891, 431.324861, 288.202058, 747.376502
1892, 457.496656, 244.537057, 778.039803
1893, 366.811643, 366.811643, 778.039803
1894, 364.601934, 364.601934, 777.987217
1895, 366.811643, 366.811643, 747.376502
1896, 400.999173, 329.091516, 778.039803
1897, 288.202058, 431.324861, 778.039803
1898, 286.465901, 428.726519, 777.987217
1899, 288.202058, 431.324861, 747.376502
1900, 329.091516, 400.999173, 778.039803
1901, 198.517031, 479.262507, 778.039803
1902, 197.321145, 476.375384, 777.987217
1903, 198.517031, 479.262507, 747.376502
1904, 244.537057, 457.496656, 778.039803
1905, 101.203105, 508.782364, 778.039803
1906, 100.593447, 505.717410, 777.987217
1907, 101.203105, 508.782364, 747.376502
1908, 150.585176, 496.412799, 778.039803
1909, 0.000000, 518.750000, 778.039803
1910, 0.000000, 515.625000, 777.987217
1911, 0.000000, 518.750000, 747.376502
1912, 50.846392, 516.252077, 778.039803
1913, 525.000000, 0.000000, 778.144976
1914, 514.912272, 102.422419, 778.144976
1915, 521.875000, 0.000000, 778.092389
1916, 525.000000, 0.000000, 747.477530
1917, 511.847318, 101.812762, 778.092389
1918, 514.912272, 102.422419, 747.477530
1919, 522.471982, 51.458999, 778.144976
1920, 485.036755, 200.908802, 778.144976
1921, 482.149631, 199.712916, 778.092389
1922, 485.036755, 200.908802, 747.477530
1923, 502.393676, 152.399456, 778.144976
1924, 436.521546, 291.674372, 778.144976
1925, 433.923204, 289.938215, 778.092389
1926, 436.521546, 291.674372, 747.477530
1927, 463.008664, 247.483287, 778.144976
1928, 371.231060, 371.231060, 778.144976
1929, 369.021351, 369.021351, 778.092389
1930, 371.231060, 371.231060, 747.477530
1931, 405.830488, 333.056474, 778.144976
1932, 291.674372, 436.521546, 778.144976
1933, 289.938215, 433.923204, 778.092389
1934, 291.674372, 436.521546, 747.477530
1935, 333.056474, 405.830488, 778.144976
1936, 200.908802, 485.036755, 778.144976
1937, 199.712916, 482.149631, 778.092389
1938, 200.908802, 485.036755, 747.477530
1939, 247.483287, 463.008664, 778.144976
1940, 102.422419, 514.912272, 778.144976
1941, 101.812762, 511.847318, 778.092389
1942, 102.422419, 514.912272, 747.477530
1943, 152.399456, 502.393676, 778.144976
1944, 0.000000, 525.000000, 778.144976
1945, 0.000000, 521.875000, 778.092389
1946, 0.000000, 525.000000, 747.477530
1947, 51.458999, 522.471982, 778.144976
1948, 500.000000, 0.000000, 837.580269
1949, 506.250000, 0.000000, 837.693537
1950, 490.392640, 97.545161, 837.580269
1951, 496.522548, 98.764476, 837.693537
1952, 500.000000, 0.000000, 807.894952
1953, 503.125000, 0.000000, 837.636903
1954, 506.250000, 0.000000, 808.004205
1955, 490.392640, 97.545161, 807.894952
1956, 493.457594, 98.154818, 837.636903
1957, 496.522548, 98.764476, 808.004205
1958, 497.592363, 49.008570, 837.580269
1959, 503.812268, 49.621177, 837.693537
1960, 461.939766, 191.341716, 837.580269
1961, 467.714013, 193.733488, 837.693537
1962, 461.939766, 191.341716, 807.894952
1963, 464.826890, 192.537602, 837.636903
1964, 467.714013, 193.733488, 808.004205
1965, 478.470168, 145.142339, 837.580269
1966, 484.451045, 146.956618, 837.693537
1967, 415.734806, 277.785117, 837.580269
1968, 420.931491, 281.257430, 837.693537
1969, 415.734806, 277.785117, 807.894952
1970, 418.333149, 279.521273, 837.636903
1971, 420.931491, 281.257430, 808.004205
1972, 440.960632, 235.698368, 837.580269
1973, 446.472640, 238.644598, 837.693537
1974, 353.553391, 353.553391, 837.580269
1975, 357.972808, 357.972808, 837.693537
1976, 353.553391, 353.553391, 807.894952
1977, 355.763099, 355.763099, 837.636903
1978, 357.972808, 357.972808, 808.004205
1979, 386.505227, 317.196642, 837.580269
1980, 391.336542, 321.161600, 837.693537
1981, 277.785117, 415.734806, 837.580269
1982, 281.257430, 420.931491, 837.693537
1983, 277.785117, 415.734806, 807.894952
1984, 279.521273, 418.333149, 837.636903
1985, 281.257430, 420.931491, 808.004205
1986, 317.196642, 386.505227, 837.580269
1987, 321.161600, 391.336542, 837.693537
1988, 191.341716, 461.939766, 837.580269
1989, 193.733488, 467.714013, 837.693537
1990, 191.341716, 461.939766, 807.894952
1991, 192.537602, 464.826890, 837.636903
1992, 193.733488, 467.714013, 808.004205
1993, 235.698368, 440.960632, 837.580269
1994, 238.644598, 446.472640, 837.693537
1995, 97.545161, 490.392640, 837.580269
1996, 98.764476, 496.522548, 837.693537
1997, 97.545161, 490.392640, 807.894952
1998, 98.154818, 493.457594, 837.636903
1999, 98.764476, 496.522548, 808.004205
2000, 145.142339, 478.470168, 837.580269
2001, 146.956618, 484.451045, 837.693537
2002, 0.000000, 500.000000, 837.580269
2003, 0.000000, 506.250000, 837.693537
2004, 0.000000, 500.000000, 807.894952
2005, 0.000000, 503.125000, 837.636903
2006, 0.000000, 506.250000, 808.004205
2007, 49.008570, 497.592363, 837.580269
2008, 49.621177, 503.812268, 837.693537
2009, 512.500000, 0.000000, 837.806804
2010, 502.652456, 99.983790, 837.806804
2011, 509.375000, 0.000000, 837.750170
2012, 512.500000, 0.000000, 808.113457
2013, 499.587502, 99.374133, 837.750170
2014, 502.652456, 99.983790, 808.113457
2015, 510.032172, 50.233784, 837.806804
2016, 473.488260, 196.125259, 837.806804
2017, 470.601137, 194.929373, 837.750170
2018, 473.488260, 196.125259, 808.113457
2019, 490.431922, 148.770897, 837.806804
2020, 426.128176, 284.729744, 837.806804
2021, 423.529834, 282.993587, 837.750170
2022, 426.128176, 284.729744, 808.113457
2023, 451.984648, 241.590828, 837.806804
2024, 362.392225, 362.392225, 837.806804
2025, 360.182517, 360.182517, 837.750170
2026, 362.392225, 362.392225, 808.113457
2027, 396.167857, 325.126558, 837.806804
2028, 284.729744, 426.128176, 837.806804
2029, 282.993587, 423.529834, 837.750170
2030, 284.729744, 426.128176, 808.113457
2031, 325.126558, 396.167857, 837.806804
2032, 196.125259, 473.488260, 837.806804
2033, 194.929373, 470.601137, 837.750170
2034, 196.125259, 473.488260, 808.113457
2035, 241.590828, 451.984648, 837.806804
2036, 99.983790, 502.652456, 837.806804
2037, 99.374133, 499.587502, 837.750170
2038, 99.983790, 502.652456, 808.113457
2039, 148.770897, 490.431922, 837.806804
2040, 0.000000, 512.500000, 837.806804
2041, 0.000000, 509.375000, 837.750170
2042, 0.000000, 512.500000, 808.113457
2043, 50.233784, 510.032172, 837.806804
2044, 518.750000, 0.000000, 837.920071
2045, 508.782364, 101.203105, 837.920071
2046, 515.625000, 0.000000, 837.863437
2047, 518.750000, 0.000000, 808.222710
2048, 505.717410, 100.593447, 837.863437
2049, 508.782364, 101.203105, 808.222710
2050, 516.252077, 50.846392, 837.920071
2051, 479.262507, 198.517031, 837.920071
2052, 476.375384, 197.321145, 837.863437
2053, 479.262507, 198.517031, 808.222710
2054, 496.412799, 150.585176, 837.920071
2055, 431.324861, 288.202058, 837.920071
2056, 428.726519, 286.465901, 837.863437
2057, 431.324861, 288.202058, 808.222710
2058, 457.496656, 244.537057, 837.920071
2059, 366.811643, 366.811643, 837.920071
2060, 364.601934, 364.601934, 837.863437
2061, 366.811643, 366.811643, 808.222710
2062, 400.999173, 329.091516, 837.920071
2063, 288.202058, 431.324861, 837.920071
2064, 286.465901, 428.726519, 837.863437
2065, 288.202058, 431.324861, 808.222710
2066, 329.091516, 400.999173, 837.920071
2067, 198.517031, 479.262507, 837.920071
2068, 197.321145, 476.375384, 837.863437
2069, 198.517031, 479.262507, 808.222710
2070, 244.537057, 457.496656, 837.920071
2071, 101.203105, 508.782364, 837.920071
2072, 100.593447, 505.717410, 837.863437
2073, 101.203105, 508.782364, 808.222710
2074, 150.585176, 496.412799, 837.920071
2075, 0.000000, 518.750000, 837.920071
2076, 0.000000, 515.625000, 837.863437
2077, 0.000000, 518.750000, 808.222710
2078, 50.846392, 516.252077, 837.920071
2079, 525.000000, 0.000000, 838.033338
2080, 514.912272, 102.422419, 838.033338
2081, 521.875000, 0.000000, 837.976704
2082, 525.000000, 0.000000, 808.331963
2083, 511.847318, 101.812762, 837.976704
2084, 514.912272, 102.422419, 808.331963
2085, 522.471982, 51.458999, 838.033338
2086, 485.036755, 200.908802, 838.033338
2087, 482.149631, 199.712916, 837.976704
2088, 485.036755, 200.908802, 808.331963
2089, 502.393676, 152.399456, 838.033338
2090, 436.521546, 291.674372, 838.033338
2091, 433.923204, 289.938215, 837.976704
2092, 436.521546, 291.674372, 808.331963
2093, 463.008664, 247.483287, 838.033338
2094, 371.231060, 371.231060, 838.033338
2095, 369.021351, 369.021351, 837.976704
2096, 371.231060, 371.231060, 808.331963
2097, 405.830488, 333.056474, 838.033338
2098, 291.674372, 436.521546, 838.033338
2099, 289.938215, 433.923204, 837.976704
2100, 291.674372, 436.521546, 808.331963
2101, 333.056474, 405.830488, 838.033338
2102, 200.908802, 485.036755, 838.033338
2103, 199.712916, 482.149631, 837.976704
2104, 200.908802, 485.036755, 808.331963
2105, 247.483287, 463.008664, 838.033338
2106, 102.422419, 514.912272, 838.033338
2107, 101.812762, 511.847318, 837.976704
2108, 102.422419, 514.912272, 808.331963
2109, 152.399456, 502.393676, 838.033338
2110, 0.000000, 525.000000, 838.033338
2111, 0.000000, 521.875000, 837.976704
2112, 0.000000, 525.000000, 808.331963
2113, 51.458999, 522.471982, 838.033338
2114, 500.000000, 0.000000, 895.473246
2115, 506.250000, 0.000000, 895.594342
2116, 490.392640, 97.545161, 895.473246
2117, 496.522548, 98.764476, 895.594342
2118, 500.000000, 0.000000, 866.774888
2119, 503.125000, 0.000000, 895.533794
2120, 506.250000, 0.000000, 866.892103
2121, 490.392640, 97.545161, 866.774888
2122, 493.457594, 98.154818, 895.533794
2123, 496.522548, 98.764476, 866.892103
2124, 497.592363, 49.008570, 895.473246
2125, 503.812268, 49.621177, 895.594342
2126, 461.939766, 191.341716, 895.473246
2127, 467.714013, 193.733488, 895.594342
2128, 461.939766, 191.341716, 866.774888
2129, 464.826890, 192.537602, 895.533794
2130, 467.714013, 193.733488, 866.892103
2131, 478.470168, 145.142339, 895.473246
2132, 484.451045, 146.956618, 895.594342
2133, 415.734806, 277.785117, 895.473246
2134, 420.931491, 281.257430, 895.594342
2135, 415.734806, 277.785117, 866.774888
2136, 418.333149, 279.521273, 895.533794
2137, 420.931491, 281.257430, 866.892103
2138, 440.960632, 235.698368, 895.473246
2139, 446.472640, 238.644598, 895.594342
2140, 353.553391, 353.553391, 895.473246
2141, 357.972808, 357.972808, 895.594342
2142, 353.553391, 353.553391, 866.774888
2143, 355.763099, 355.763099, 895.533794
2144, 357.972808, 357.972808, 866.892103
2145, 386.505227, 317.196642, 895.473246
2146, 391.336542, 321.161600, 895.594342
2147, 277.785117, 415.734806, 895.473246
2148, 281.257430, 420.931491, 895.594342
2149, 277.785117, 415.734806, 866.774888
2150, 279.521273, 418.333149, 895.533794
2151, 281.257430, 420.931491, 866.892103
2152, 317.196642, 386.505227, 895.473246
2153, 321.161600, 391.336542, 895.594342
2154, 191.341716, 461.939766, 895.473246
2155, 193.733488, 467.714013, 895.594342
2156, 191.341716, 461.939766, 866.774888
2157, 192.537602, 464.826890, 895.533794
2158, 193.733488, 467.714013, 866.892103
2159, 235.698368, 440.960632, 895.473246
2160, 238.644598, 446.472640, 895.594342
2161, 97.545161, 490.392640, 895.473246
2162, 98.764476, 496.522548, 895.594342
2163, 97.545161, 490.392640, 866.774888
2164, 98.154818, 493.457594, 895.533794
2165, 98.764476, 496.522548, 866.892103
2166, 145.142339, 478.470168, 895.473246
2167, 146.956618, 484.451045, 895.594342
2168, 0.000000, 500.000000, 895.473246
2169, 0.000000, 506.250000, 895.594342
2170, 0.000000, 500.000000, 866.774888
2171, 0.000000, 503.125000, 895.533794
2172, 0.000000, 506.250000, 866.892103
2173, 49.008570, 497.592363, 895.473246
2174, 49.621177, 503.812268, 895.594342
2175, 512.500000, 0.000000, 895.715438
2176, 502.652456, 99.983790, 895.715438
2177, 509.375000, 0.000000, 895.654890
2178, 512.500000, 0.000000, 867.009318
2179, 499.587502, 99.374133, 895.654890
2180, 502.652456, 99.983790, 867.009318
2181, 510.032172, 50.233784, 895.715438
2182, 473.488260, 196.125259, 895.715438
2183, 470.601137, 194.929373, 895.654890
2184, 473.488260, 196.125259, 867.009318
2185, 490.431922, 148.770897, 895.715438
2186, 426.128176, 284.729744, 895.715438
2187, 423.529834, 282.993587, 895.654890
2188, 426.128176, 284.729744, 867.009318
2189, 451.984648, 241.590828, 895.715438
2190, 362.392225, 362.392225, 895.715438
2191, 360.182517, 360.182517, 895.654890
2192, 362.392225, 362.392225, 867.009318
2193, 396.167857, 325.126558, 895.715438
2194, 284.729744, 426.128176, 895.715438
2195, 282.993587, 423.529834, 895.654890
2196, 284.729744, 426.128176, 867.009318
2197, 325.126558, 396.167857, 895.715438
2198, 196.125259, 473.488260, 895.715438
2199, 194.929373, 470.601137, 895.654890
2200, 196.125259, 473.488260, 867.009318
2201, 241.590828, 451.984648, 895.715438
2202, 99.983790, 502.652456, 895.715438
2203, 99.374133, 499.587502, 895.654890
2204, 99.983790, 502.652456, 867.009318
2205, 148.770897, 490.431922, 895.715438
2206, 0.000000, 512.500000, 895.715438
2207, 0.000000, 509.375000, 895.654890
2208, 0.000000, 512.500000, 867.009318
2209, 50.233784, 510.032172, 895.715438
2210, 518.750000, 0.000000, 895.836534
2211, 508.782364, 101.203105, 895.836534
2212, 515.625000, 0.000000, 895.775986
2213, 518.750000, 0.000000, 867.126534
2214, 505.717410, 100.593447, 895.775986
2215, 508.782364, 101.203105, 867.126534
2216, 516.252077, 50.846392, 895.836534
2217, 479.262507, 198.517031, 895.836534
2218, 476.375384, 197.321145, 895.775986
2219, 479.262507, 198.517031, 867.126534
2220, 496.412799, 150.585176, 895.836534
2221, 431.324861, 288.202058, 895.836534
2222, 428.726519, 286.465901, 895.775986
2223, 431.324861, 288.202058, 867.126534
2224, 457.496656, 244.537057, 895.836534
2225, 366.811643, 366.811643, 895.836534
2226, 364.601934, 364.601934, 895.775986
2227, 366.811643, 366.811643, 867.126534
2228, 400.999173, 329.091516, 895.836534
2229, 288.202058, 431.324861, 895.836534
2230, 286.465901, 428.726519, 895.775986
2231, 288.202058, 431.324861, 867.126534
2232, 329.091516, 400.999173, 895.836534
2233, 198.517031, 479.262507, 895.836534
2234, 197.321145, 476.375384, 895.775986
2235, 198.517031, 479.262507, 867.126534
2236, 244.537057, 457.496656, 895.836534
2237, 101.203105, 508.782364, 895.836534
2238, 100.593447, 505.717410, 895.775986
2239, 101.203105, 508.782364, 867.126534
2240, 150.585176, 496.412799, 895.836534
2241, 0.000000, 518.750000, 895.836534
2242, 0.000000, 515.625000, 895.775986
2243, 0.000000, 518.750000, 867.126534
2244, 50.846392, 516.252077, 895.836534
2245, 525.000000, 0.000000, 895.957630
2246, 514.912272, 102.422419, 895.957630
2247, 521.875000, 0.000000, 895.897082
2248, 525.000000, 0.000000, 867.243749
2249, 511.847318, 101.812762, 895.897082
2250, 514.912272, 102.422419, 867.243749
2251, 522.471982, 51.458999, 895.957630
2252, 485.036755, 200.908802, 895.957630
2253, 482.149631, 199.712916, 895.897082
2254, 485.036755, 200.908802, 867.243749
2255, 502.393676, 152.399456, 895.957630
2256, 436.521546, 291.674372, 895.957630
2257, 433.923204, 289.938215, 895.897082
2258, 436.521546, 291.674372, 867.243749
2259, 463.008664, 247.483287, 895.957630
2260, 371.231060, 371.231060, 895.957630
2261, 369.021351, 369.021351, 895.897082
2262, 371.231060, 371.231060, 867.243749
2263, 405.830488, 333.056474, 895.957630
2264, 291.674372, 436.521546, 895.957630
2265, 289.938215, 433.923204, 895.897082
2266, 291.674372, 436.521546, 867.243749
2267, 333.056474, 405.830488, 895.957630
2268, 200.908802, 485.036755, 895.957630
2269, 199.712916, 482.149631, 895.897082
2270, 200.908802, 485.036755, 867.243749
2271, 247.483287, 463.008664, 895.957630
2272, 102.422419, 514.912272, 895.957630
2273, 101.812762, 511.847318, 895.897082
2274, 102.422419, 514.912272, 867.243749
2275, 152.399456, 502.393676, 895.957630
2276, 0.000000, 525.000000, 895.957630
2277, 0.000000, 521.875000, 895.897082
2278, 0.000000, 525.000000, 867.243749
2279, 51.458999, 522.471982, 895.957630
2280, 500.000000, 0.000000, 951.357782
2281, 506.250000, 0.000000, 951.486435
2282, 490.392640, 97.545161, 951.357782
2283, 496.522548, 98.764476, 951.486435
2284, 500.000000, 0.000000, 923.669555
2285, 503.125000, 0.000000, 951.422108
2286, 506.250000, 0.000000, 923.794464
2287, 490.392640, 97.545161, 923.669555
2288, 493.457594, 98.154818, 951.422108
2289, 496.522548, 98.764476, 923.794464
2290, 497.592363, 49.008570, 951.357782
2291, 503.812268, 49.621177, 951.486435
2292, 461.939766, 191.341716, 951.357782
2293, 467.714013, 193.733488, 951.486435
2294, 461.939766, 191.341716, 923.669555
2295, 464.826890, 192.537602, 951.422108
2296, 467.714013, 193.733488, 923.794464
2297, 478.470168, 145.142339, 951.357782
2298, 484.451045, 146.956618, 951.486435
2299, 415.734806, 277.785117, 951.357782
2300, 420.931491, 281.257430, 951.486435
2301, 415.734806, 277.785117, 923.669555
2302, 418.333149, 279.521273, 951.422108
2303, 420.931491, 281.257430, 923.794464
2304, 440.960632, 235.698368, 951.357782
2305, 446.472640, 238.644598, 951.486435
2306, 353.553391, 353.553391, 951.357782
2307, 357.972808, 357.972808, 951.486435
2308, 353.553391, 353.553391, 923.669555
2309, 355.763099, 355.763099, 951.422108
2310, 357.972808, 357.972808, 923.794464
2311, 386.505227, 317.196642, 951.357782
2312, 391.336542, 321.161600, 951.486435
2313, 277.785117, 415.734806, 951.357782
2314, 281.257430, 420.931491, 951.486435
2315, 277.785117, 415.734806, 923.669555
2316, 279.521273, 418.333149, 951.422108
2317, 281.257430, 420.931491, 923.794464
2318, 317.196642, 386.505227, 951.357782
2319, 321.161600, 391.336542, 951.486435
2320, 191.341716, 461.939766, 951.357782
2321, 193.733488, 467.714013, 951.486435
2322, 191.341716, 461.939766, 923.669555
2323, 192.537602, 464.826890, 951.422108
2324, 193.733488, 467.714013, 923.794464
2325, 235.698368, 440.960632, 951.357782
2326, 238.644598, 446.472640, 951.486435
2327, 97.545161, 490.392640, 951.357782
2328, 98.764476, 496.522548, 951.486435
2329, 97.545161, 490.392640, 923.669555
2330, 98.154818, 493.457594, 951.422108
2331, 98.764476, 496.522548, 923.794464
2332, 145.142339, 478.470168, 951.357782
2333, 146.956618, 484.451045, 951.486435
2334, 0.000000, 500.000000, 951.357782
2335, 0.000000, 506.250000, 951.486435
2336, 0.000000, 500.000000, 923.669555
2337, 0.000000, 503.125000, 951.422108
2338, 0.000000, 506.250000, 923.794464
2339, 49.008570, 497.592363, 951.357782
2340, 49.621177, 503.812268, 951.486435
2341, 512.500000, 0.000000, 951.615089
2342, 502.652456, 99.983790, 951.615089
2343, 509.375000, 0.000000, 951.550762
2344, 512.500000, 0.000000, 923.919373
2345, 499.587502, 99.374133, 951.550762
2346, 502.652456, 99.983790, 923.919373
2347, 510.032172, 50.233784, 951.615089
2348, 473.488260, 196.125259, 951.615089
2349, 470.601137, 194.929373, 951.550762
2350, 473.488260, 196.125259, 923.919373
2351, 490.431922, 148.770897, 951.615089
2352, 426.128176, 284.729744, 951.615089
2353, 423.529834, 282.993587, 951.550762
2354, 426.128176, 284.729744, 923.919373
2355, 451.984648, 241.590828, 951.615089
2356, 362.392225, 362.392225, 951.615089
2357, 360.182517, 360.182517, 951.550762
2358, 362.392225, 362.392225, 923.919373
2359, 396.167857, 325.126558, 951.615089
2360, 284.729744, 426.128176, 951.615089
2361, 282.993587, 423.529834, 951.550762
2362, 284.729744, 426.128176, 923.919373
2363, 325.126558, 396.167857, 951.615089
2364, 196.125259, 473.488260, 951.615089
2365, 194.929373, 470.601137, 951.550762
2366, 196.125259, 473.488260, 923.919373
2367, 241.590828, 451.984648, 951.615089
2368, 99.983790, 502.652456, 951.615089
2369, 99.374133, 499.587502, 951.550762
2370, 99.983790, 502.652456, 923.919373
2371, 148.770897, 490.431922, 951.615089
2372, 0.000000, 512.500000, 951.615089
2373, 0.000000, 509.375000, 951.550762
2374, 0.000000, 512.500000, 923.919373
2375, 50.233784, 510.032172, 951.615089
2376, 518.750000, 0.000000, 951.743742
2377, 508.782364, 101.203105, 951.743742
2378, 515.625000, 0.000000, 951.679415
2379, 518.750000, 0.000000, 924.044282
2380, 505.717410, 100.593447, 951.679415
2381, 508.782364, 101.203105, 924.044282
2382, 516.252077, 50.846392, 951.743742
2383, 479.262507, 198.517031, 951.743742
2384, 476.375384, 197.321145, 951.679415
2385, 479.262507, 198.517031, 924.044282
2386, 496.412799, 150.585176, 951.743742
2387, 431.324861, 288.202058, 951.743742
2388, 428.726519, 286.465901, 951.679415
2389, 431.324861, 288.202058, 924.044282
2390, 457.496656, 244.537057, 951.743742
2391, 366.811643, 366.811643, 951.743742
2392, 364.601934, 364.601934, 951.679415
2393, 366.811643, 366.811643, 924.044282
2394, 400.999173, 329.091516, 951.743742
2395, 288.202058, 431.324861, 951.743742
2396, 286.465901, 428.726519, 951.679415
2397, 288.202058, 431.324861, 924.044282
2398, 329.091516, 400.999173, 951.743742
2399, 198.517031, 479.262507, 951.743742
2400, 197.321145, 476.375384, 951.679415
2401, 198.517031, 479.262507, 924.044282
2402, 244.537057, 457.496656, 951.743742
2403, 101.203105, 508.782364, 951.743742
2404, 100.593447, 505.717410, 951.679415
2405, 101.203105, 508.782364, 924.044282
2406, 150.585176, 496.412799, 951.743742
2407, 0.000000, 518.750000, 951.743742
2408, 0.000000, 515.625000, 951.679415
2409, 0.000000, 518.750000, 924.044282
2410, 50.846392, 516.252077, 951.743742
2411, 525.000000, 0.000000, 951.872395
2412, 514.912272, 102.422419, 951.872395
2413, 521.875000, 0.000000, 951.808069
2414, 525.000000, 0.000000, 924.169191
2415, 511.847318, 101.812762, 951.808069
2416, 514.912272, 102.422419, 924.169191
2417, 522.471982, 51.458999, 951.872395
2418, 485.036755, 200.908802, 951.872395
2419, 482.149631, 199.712916, 951.808069
2420, 485.036755, 200.908802, 924.169191
2421, 502.393676, 152.399456, 951.872395
2422, 436.521546, 291.674372, 951.872395
2423, 433.923204, 289.938215, 951.808069
2424, 436.521546, 291.674372, 924.169191
2425, 463.008664, 247.483287, 951.872395
2426, 371.231060, 371.231060, 951.872395
2427, 369.021351, 369.021351, 951.808069
2428, 371.231060, 371.231060, 924.169191
2429, 405.830488, 333.056474, 951.872395
2430, 291.674372, 436.521546, 951.872395
2431, 289.938215, 433.923204, 951.808069
2432, 291.674372, 436.521546, 924.169191
2433, 333.056474, 405.830488, 951.872395
2434, 200.908802, 485.036755, 951.872395
2435, 199.712916, 482.149631, 951.808069
2436, 200.908802, 485.036755, 924.169191
2437, 247.483287, 463.008664, 951.872395
2438, 102.422419, 514.912272, 951.872395
2439, 101.812762, 511.847318, 951.808069
2440, 102.422419, 514.912272, 924.169191
2441, 152.399456, 502.393676, 951.872395
2442, 0.000000, 525.000000, 951.872395
2443, 0.000000, 521.875000, 951.808069
2444, 0.000000, 525.000000, 924.169191
2445, 51.458999, 522.471982, 951.872395
2446, 500.000000, 0.000000, 1005.184533
2447, 506.250000, 0.000000, 1005.320466
2448, 490.392640, 97.545161, 1005.184533
2449, 496.522548, 98.764476, 1005.320466
2450, 500.000000, 0.000000, 978.531633
2451, 503.125000, 0.000000, 1005.252500
2452, 506.250000, 0.000000, 978.663961
2453, 490.392640, 97.545161, 978.531633
2454, 493.457594, 98.154818, 1005.252500
2455, 496.522548, 98.764476, 978.663961
2456, 497.592363, 49.008570, 1005.184533
2457, 503.812268, 49.621177, 1005.320466
2458, 461.939766, 191.341716, 1005.184533
2459, 467.714013, 193.733488, 1005.320466
2460, 461.939766, 191.341716, 978.531633
2461, 464.826890, 192.537602, 1005.252500
2462, 467.714013, 193.733488, 978.663961
2463, 478.470168, 145.142339, 1005.184533
2464, 484.451045, 146.956618, 1005.320466
2465, 415.734806, 277.785117, 1005.184533
2466, 420.931491, 281.257430, 1005.320466
2467, 415.734806, 277.785117, 978.531633
2468, 418.333149, 279.521273, 1005.252500
2469, 420.931491, 281.257430, 978.663961
2470, 440.960632, 235.698368, 1005.184533
2471, 446.472640, 238.644598, 1005.320466
2472, 353.553391, 353.553391, 1005.184533
2473, 357.972808, 357.972808, 1005.320466
2474, 353.553391, 353.553391, 978.531633
2475, 355.763099, 355.763099, 1005.252500
2476, 357.972808, 357.972808, 978.663961
2477, 386.505227, 317.196642, 1005.184533
2478, 391.336542, 321.161600, 1005.320466
2479, 277.785117, 415.734806, 1005.184533
2480, 281.257430, 420.931491, 1005.320466
2481, 277.785117, 415.734806, 978.531633
2482, 279.521273, 418.333149, 1005.252500
2483, 281.257430, 420.931491, 978.663961
2484, 317.196642, 386.505227, 1005.184533
2485, 321.161600, 391.336542, 1005.320466
2486, 191.341716, 461.939766, 1005.184533
2487, 193.733488, 467.714013, 1005.320466
2488, 191.341716, 461.939766, 978.531633
2489, 192.537602, 464.826890, 1005.252500
2490, 193.733488, 467.714013, 978.663961
2491, 235.698368, 440.960632, 1005.184533
2492, 238.644598, 446.472640, 1005.320466
2493, 97.545161, 490.392640, 1005.184533
2494, 98.764476, 496.522548, 1005.320466
2495, 97.545161, 490.392640, 978.531633
2496, 98.154818, 493.457594, 1005.252500
2497, 98.764476, 496.522548, 978.663961
2498, 145.142339, 478.470168, 1005.184533
2499, 146.956618, 484.451045, 1005.320466
2500, 0.000000, 500.000000, 1005.184533
2501, 0.000000, 506.250000, 1005.320466
2502, 0.000000, 500.000000, 978.531633
2503, 0.000000, 503.125000, 1005.252500
2504, 0.000000, 506.250000, 978.663961
2505, 49.008570, 497.592363, 1005.184533
2506, 49.621177, 503.812268, 1005.320466
2507, 512.500000, 0.000000, 1005.456398
2508, 502.652456, 99.983790, 1005.456398
2509, 509.375000, 0.000000, 1005.388432
2510, 512.500000, 0.000000, 978.796289
2511, 499.587502, 99.374133, 1005.388432
2512, 502.652456, 99.983790, 978.796289
2513, 510.032172, 50.233784, 1005.456398
2514, 473.488260, 196.125259, 1005.456398
2515, 470.601137, 194.929373, 1005.388432
2516, 473.488260, 196.125259, 978.796289
2517, 490.431922, 148.770897, 1005.456398
2518, 426.128176, 284.729744, 1005.456398
2519, 423.529834, 282.993587, 1005.388432
2520, 426.128176, 284.729744, 978.796289
2521, 451.984648, 241.590828, 1005.456398
2522, 362.392225, 362.392225, 1005.456398
2523, 360.182517, 360.182517, 1005.388432
2524, 362.392225, 362.392225, 978.796289
2525, 396.167857, 325.126558, 1005.456398
2526, 284.729744, 426.128176, 1005.456398
2527, 282.993587, 423.529834, 1005.388432
2528, 284.729744, 426.128176, 978.796289
2529, 325.126558, 396.167857, 1005.456398
2530, 196.125259, 473.488260, 1005.456398
2531, 194.929373, 470.601137, 1005.388432
2532, 196.125259, 473.488260, 978.796289
2533, 241.590828, 451.984648, 1005.456398
2534, 99.983790, 502.652456, 1005.456398
2535, 99.374133, 499.587502, 1005.388432
2536, 99.983790, 502.652456, 978.796289
2537, 148.770897, 490.431922, 1005.456398
2538, 0.000000, 512.500000, 1005.456398
2539, 0.000000, 509.375000, 1005.388432
2540, 0.000000, 512.500000, 978.796289
2541, 50.233784, 510.032172, 1005.456398
2542, 518.750000, 0.000000, 1005.592331
2543, 508.782364, 101.203105, 1005.592331
2544, 515.625000, 0.000000, 1005.524365
2545, 518.750000, 0.000000, 978.928618
2546, 505.717410, 100.593447, 1005.524365
2547, 508.782364, 101.203105, 978.928618
2548, 516.252077, 50.846392, 1005.592331
2549, 479.262507, 198.517031, 1005.592331
2550, 476.375384, 197.321145, 1005.524365
2551, 479.262507, 198.517031, 978.928618
2552, 496.412799, 150.585176, 1005.592331
2553, 431.324861, 288.202058, 1005.592331
2554, 428.726519, 286.465901, 1005.524365
2555, 431.324861, 288.202058, 978.928618
2556, 457.496656, 244.537057, 1005.592331
2557, 366.811643, 366.811643, 1005.592331
2558, 364.601934, 364.601934, 1005.524365
2559, 366.811643, 366.811643, 978.928618
2560, 400.999173, 329.091516, 1005.592331
2561, 288.202058, 431.324861, 1005.592331
2562, 286.465901, 428.726519, 1005.524365
2563, 288.202058, 431.324861, 978.928618
2564, 329.091516, 400.999173, 1005.592331
2565, 198.517031, 479.262507, 1005.592331
2566, 197.321145, 476.375384, 1005.524365
2567, 198.517031, 479.262507, 978.928618
2568, 244.537057, 457.496656, 1005.592331
2569, 101.203105, 508.782364, 1005.592331
2570, 100.593447, 505.717410, 1005.524365
2571, 101.203105, 508.782364, 978.928618
2572, 150.585176, 496.412799, 1005.592331
2573, 0.000000, 518.750000, 1005.592331
2574, 0.000000, 515.625000, 1005.524365
2575, 0.000000, 518.750000, 978.928618
2576, 50.846392, 516.252077, 1005.592331
2577, 525.000000, 0.000000, 1005.728263
2578, 514.912272, 102.422419, 1005.728263
2579, 521.875000, 0.000000, 1005.660297
2580, 525.000000, 0.000000, 979.060946
2581, 511.847318, 101.812762, 1005.660297
2582, 514.912272, 102.422419, 979.060946
2583, 522.471982, 51.458999, 1005.728263
2584, 485.036755, 200.908802, 1005.728263
2585, 482.149631, 199.712916, 1005.660297
2586, 485.036755, 200.908802, 979.060946
2587, 502.393676, 152.399456, 1005.728263
2588, 436.521546, 291.674372, 1005.728263
2589, 433.923204, 289.938215, 1005.660297
2590, 436.521546, 291.674372, 979.060946
2591, 463.008664, 247.483287, 1005.728263
2592, 371.231060, 371.231060, 1005.728263
2593, 369.021351, 369.021351, 1005.660297
2594, 371.231060, 371.231060, 979.060946
2595, 405.830488, 333.056474, 1005.728263
2596, 291.674372, 436.521546, 1005.728263
2597, 289.938215, 433.923204, 1005.660297
2598, 291.674372, 436.521546, 979.060946
2599, 333.056474, 405.830488, 1005.728263
2600, 200.908802, 485.036755, 1005.728263
2601, 199.712916, 482.149631, 1005.660297
2602, 200.908802, 485.036755, 979.060946
2603, 247.483287, 463.008664, 1005.728263
2604, 102.422419, 514.912272, 1005.728263
2605, 101.812762, 511.847318, 1005.660297
2606, 102.422419, 514.912272, 979.060946
2607, 152.399456, 502.393676, 1005.728263
2608, 0.000000, 525.000000, 1005.728263
2609, 0.000000, 521.875000, 1005.660297
2610, 0.000000, 525.000000, 979.060946
2611, 51.458999, 522.471982, 1005.728263
2612, 500.000000, 0.000000, 1056.899634
2613, 506.250000, 0.000000, 1057.042560
2614, 490.392640, 97.545161, 1056.899634
2615, 496.522548, 98.764476, 1057.042560
2616, 500.000000, 0.000000, 1031.309603
2617, 503.125000, 0.000000, 1056.971097
2618, 506.250000, 0.000000, 1031.449069
2619, 490.392640, 97.545161, 1031.309603
2620, 493.457594, 98.154818, 1056.971097
2621, 496.522548, 98.764476, 1031.449069
2622, 497.592363, 49.008570, 1056.899634
2623, 503.812268, 49.621177, 1057.042560
2624, 461.939766, 191.341716, 1056.899634
2625, 467.714013, 193.733488, 1057.042560
2626, 461.939766, 191.341716, 1031.309603
2627, 464.826890, 192.537602, 1056.971097
2628, 467.714013, 193.733488, 1031.449069
2629, 478.470168, 145.142339, 1056.899634
2630, 484.451045, 146.956618, 1057.042560
2631, 415.734806, 277.785117, 1056.899634
2632, 420.931491, 281.257430, 1057.042560
2633, 415.734806, 277.785117, 1031.309603
2634, 418.333149, 279.521273, 1056.971097
2635, 420.931491, 281.257430, 1031.449069
2636, 440.960632, 235.698368, 1056.899634
2637, 446.472640, 238.644598, 1057.042560
2638, 353.553391, 353.553391, 1056.899634
2639, 357.972808, 357.972808, 1057.042560
2640, 353.553391, 353.553391, 1031.309603
2641, 355.763099, 355.763099, 1056.971097
2642, 357.972808, 357.972808, 1031.449069
2643, 386.505227, 317.196642, 1056.899634
2644, 391.336542, 321.161600, 1057.042560
2645, 277.785117, 415.734806, 1056.899634
2646, 281.257430, 420.931491, 1057.042560
2647, 277.785117, 415.734806, 1031.309603
2648, 279.521273, 418.333149, 1056.971097
2649, 281.257430, 420.931491, 1031.449069
2650, 317.196642, 386.505227, 1056.899634
2651, 321.161600, 391.336542, 1057.042560
2652, 191.341716, 461.939766, 1056.899634
2653, 193.733488, 467.714013, 1057.042560
2654, 191.341716, 461.939766, 1031.309603
2655, 192.537602, 464.826890, 1056.971097
2656, 193.733488, 467.714013, 1031.449069
2657, 235.698368, 440.960632, 1056.899634
2658, 238.644598, 446.472640, 1057.042560
2659, 97.545161, 490.392640, 1056.899634
2660, 98.764476, 496.522548, 1057.042560
2661, 97.545161, 490.392640, 1031.309603
2662, 98.154818, 493.457594, 1056.971097
2663, 98.764476, 496.522548, 1031.449069
2664, 145.142339, 478.470168, 1056.899634
2665, 146.956618, 484.451045, 1057.042560
2666, 0.000000, 500.000000, 1056.899634
2667, 0.000000, 506.250000, 1057.042560
2668, 0.000000, 500.000000, 1031.309603
2669, 0.000000, 503.125000, 1056.971097
2670, 0.000000, 506.250000, 1031.449069
2671, 49.008570, 497.592363, 1056.899634
2672, 49.621177, 503.812268, 1057.042560
2673, 512.500000, 0.000000, 1057.185486
2674, 502.652456, 99.983790, 1057.185486
2675, 509.375000, 0.000000, 1057.114023
2676, 512.500000, 0.000000, 1031.588534
2677, 499.587502, 99.374133, 1057.114023
2678, 502.652456, 99.983790, 1031.588534
2679, 510.032172, 50.233784, 1057.185486
2680, 473.488260, 196.125259, 1057.185486
2681, 470.601137, 194.929373, 1057.114023
2682, 473.488260, 196.125259, 1031.588534
2683, 490.431922, 148.770897, 1057.185486
2684, 426.128176, 284.729744, 1057.185486
2685, 423.529834, 282.993587, 1057.114023
2686, 426.128176, 284.729744, 1031.588534
2687, 451.984648, 241.590828, 1057.185486
2688, 362.392225, 362.392225, 1057.185486
2689, 360.182517, 360.182517, 1057.114023
2690, 362.392225, 362.392225, 1031.588534
2691, 396.167857, 325.126558, 1057.185486
2692, 284.729744, 426.128176, 1057.185486
2693, 282.993587, 423.529834, 1057.114023
2694, 284.729744, 426.128176, 1031.588534
2695, 325.126558, 396.167857, 1057.185486
2696, 196.125259, 473.488260, 1057.185486
2697, 194.929373, 470.601137, 1057.114023
2698, 196.125259, 473.488260, 1031.588534
2699, 241.590828, 451.984648, 1057.185486
2700, 99.983790, 502.652456, 1057.185486
2701, 99.374133, 499.587502, 1057.114023
2702, 99.983790, 502.652456, 1031.588534
2703, 148.770897, 490.431922, 1057.185486
2704, 0.000000, 512.500000, 1057.185486
2705, 0.000000, 509.375000, 1057.114023
2706, 0.000000, 512.500000, 1031.588534
2707, 50.233784, 510.032172, 1057.185486
2708, 518.750000, 0.000000, 1057.328412
2709, 508.782364, 101.203105, 1057.328412
2710, 515.625000, 0.000000, 1057.256949
2711, 518.750000, 0.000000, 1031.728000
2712, 505.717410, 100.593447, 1057.256949
2713, 508.782364, 101.203105, 1031.728000
2714, 516.252077, 50.846392, 1057.328412
2715, 479.262507, 198.517031, 1057.328412
2716, 476.375384, 197.321145, 1057.256949
2717, 479.262507, 198.517031, 1031.728000
2718, 496.412799, 150.585176, 1057.328412
2719, 431.324861, 288.202058, 1057.328412
2720, 428.726519, 286.465901, 1057.256949
2721, 431.324861, 288.202058, 1031.728000
2722, 457.496656, 244.537057, 1057.328412
2723, 366.811643, 366.811643, 1057.328412
2724, 364.601934, 364.601934, 1057.256949
2725, 366.811643, 366.811643, 1031.728000
2726, 400.999173, 329.091516, 1057.328412
2727, 288.202058, 431.324861, 1057.328412
2728, 286.465901, 428.726519, 1057.256949
2729, 288.202058, 431.324861, 1031.728000
2730, 329.091516, 400.999173, 1057.328412
2731, 198.517031, 479.262507, 1057.328412
2732, 197.321145, 476.375384, 1057.256949
2733, 198.517031, 479.262507, 1031.728000
2734, 244.537057, 457.496656, 1057.328412
2735, 101.203105, 508.782364, 1057.328412
2736, 100.593447, 505.717410, 1057.256949
2737, 101.203105, 508.782364, 1031.728000
2738, 150.585176, 496.412799, 1057.328412
2739, 0.000000, 518.750000, 1057.328412
2740, 0.000000, 515.625000, 1057.256949
2741, 0.000000, 518.750000, 1031.728000
2742, 50.846392, 516.252077, 1057.328412
2743, 525.000000, 0.000000, 1057.471338
2744, 514.912272, 102.422419, 1057.471338
2745, 521.875000, 0.000000, 1057.399875
2746, 525.000000, 0.000000, 1031.867465
2747, 511.847318, 101.812762, 1057.399875
2748, 514.912272, 102.422419, 1031.867465
2749, 522.471982, 51.458999, 1057.471338
2750, 485.036755, 200.908802, 1057.471338
2751, 482.149631, 199.712916, 1057.399875
2752, 485.036755, 200.908802, 1031.867465
2753, 502.393676, 152.399456, 1057.471338
2754, 436.521546, 291.674372, 1057.471338
2755, 433.923204, 289.938215, 1057.399875
2756, 436.521546, 291.674372, 1031.867465
2757, 463.008664, 247.483287, 1057.471338
2758, 371.231060, 371.231060, 1057.471338
2759, 369.021351, 369.021351, 1057.399875
2760, 371.231060, 371.231060, 1031.867465
2761, 405.830488, 333.056474, 1057.471338
2762, 291.674372, 436.521546, 1057.471338
2763, 289.938215, 433.923204, 1057.399875
2764, 291.674372, 436.521546, 1031.867465
2765, 333.056474, 405.830488, 1057.471338
2766, 200.908802, 485.036755, 1057.471338
2767, 199.712916, 482.149631, 1057.399875
2768, 200.908802, 485.036755, 1031.867465
2769, 247.483287, 463.008664, 1057.471338
2770, 102.422419, 514.912272, 1057.471338
2771, 101.812762, 511.847318, 1057.399875
2772, 102.422419, 514.912272, 1031.867465
2773, 152.399456, 502.393676, 1057.471338
2774, 0.000000, 525.000000, 1057.471338
2775, 0.000000, 521.875000, 1057.399875
2776, 0.000000, 525.000000, 1031.867465
2777, 51.458999, 522.471982, 1057.471338
2778, 500.000000, 0.000000, 1106.443930
2779, 506.250000, 0.000000, 1106.593556
2780, 490.392640, 97.545161, 1106.443930
2781, 496.522548, 98.764476, 1106.593556
2782, 500.000000, 0.000000, 1081.947061
2783, 503.125000, 0.000000, 1106.518743
2784, 506.250000, 0.000000, 1082.093374
2785, 490.392640, 97.545161, 1081.947061
2786, 493.457594, 98.154818, 1106.518743
2787, 496.522548, 98.764476, 1082.093374
2788, 497.592363, 49.008570, 1106.443930
2789, 503.812268, 49.621177, 1106.593556
2790, 461.939766, 191.341716, 1106.443930
2791, 467.714013, 193.733488, 1106.593556
2792, 461.939766, 191.341716, 1081.947061
2793, 464.826890, 192.537602, 1106.518743
2794, 467.714013, 193.733488, 1082.093374
2795, 478.470168, 145.142339, 1106.443930
2796, 484.451045, 146.956618, 1106.593556
2797, 415.734806, 277.785117, 1106.443930
2798, 420.931491, 281.257430, 1106.593556
2799, 415.734806, 277.785117, 1081.947061
2800, 418.333149, 279.521273, 1106.518743
2801, 420.931491, 281.257430, 1082.093374
2802, 440.960632, 235.698368, 1106.443930
2803, 446.472640, 238.644598, 1106.593556
2804, 353.553391, 353.553391, 1106.443930
2805, 357.972808, 357.972808, 1106.593556
2806, 353.553391, 353.553391, 1081.947061
2807, 355.763099, 355.763099, 1106.518743
2808, 357.972808, 357.972808, 1082.093374
2809, 386.505227, 317.196642, 1106.443930
2810, 391.336542, 321.161600, 1106.593556
2811, 277.785117, 415.734806, 1106.443930
2812, 281.257430, 420.931491, 1106.593556
2813, 277.785117, 415.734806, 1081.947061
2814, 279.521273, 418.333149, 1106.518743
2815, 281.257430, 420.931491, 1082.093374
2816, 317.196642, 386.505227, 1106.443930
2817, 321.161600, 391.336542, 1106.593556
2818, 191.341716, 461.939766, 1106.443930
2819, 193.733488, 467.714013, 1106.593556
2820, 191.341716, 461.939766, 1081.947061
2821, 192.537602, 464.826890, 1106.518743
2822, 193.733488, 467.714013, 1082.093374
2823, 235.698368, 440.960632, 1106.443930
2824, 238.644598, 446.472640, 1106.593556
2825, 97.545161, 490.392640, 1106.443930
2826, 98.764476, 496.522548, 1106.593556
2827, 97.545161, 490.392640, 1081.947061
2828, 98.154818, 493.457594, 1106.518743
2829, 98.764476, 496.522548, 1082.093374
2830, 145.142339, 478.470168, 1106.443930
2831, 146.956618, 484.451045, 1106.593556
2832, 0.000000, 500.000000, 1106.443930
2833, 0.000000, 506.250000, 1106.593556
2834, 0.000000, 500.000000, 1081.947061
2835, 0.000000, 503.125000, 1106.518743
2836, 0.000000, 506.250000, 1082.093374
2837, 49.008570, 497.592363, 1106.443930
2838, 49.621177, 503.812268, 1106.593556
2839, 512.500000, 0.000000, 1106.743182
2840, 502.652456, 99.983790, 1106.743182
2841, 509.375000, 0.000000, 1106.668369
2842, 512.500000, 0.000000, 1082.239687
2843, 499.587502, 99.374133, 1106.668369
2844, 502.652456, 99.983790, 1082.239687
2845, 510.032172, 50.233784, 1106.743182
2846, 473.488260, 196.125259, 1106.743182
2847, 470.601137, 194.929373, 1106.668369
2848, 473.488260, 196.125259, 1082.239687
2849, 490.431922, 148.770897, 1106.743182
2850, 426.128176, 284.729744, 1106.743182
2851, 423.529834, 282.993587, 1106.668369
2852, 426.128176, 284.729744, 1082.239687
2853, 451.984648, 241.590828, 1106.743182
2854, 362.392225, 362.392225, 1106.743182
2855, 360.182517, 360.182517, 1106.668369
2856, 362.392225, 362.392225, 1082.239687
2857, 396.167857, 325.126558, 1106.743182
2858, 284.729744, 426.128176, 1106.743182
2859, 282.993587, 423.529834, 1106.668369
2860, 284.729744, 426.128176, 1082.239687
2861, 325.126558, 396.167857, 1106.743182
2862, 196.125259, 473.488260, 1106.743182
2863, 194.929373, 470.601137, 1106.668369
2864, 196.125259, 473.488260, 1082.239687
2865, 241.590828, 451.984648, 1106.743182
2866, 99.983790, 502.652456, 1106.743182
2867, 99.374133, 499.587502, 1106.668369
2868, 99.983790, 502.652456, 1082.239687
2869, 148.770897, 490.431922, 1106.743182
2870, 0.000000, 512.500000, 1106.743182
2871, 0.000000, 509.375000, 1106.668369
2872, 0.000000, 512.500000, 1082.239687
2873, 50.233784, 510.032172, 1106.743182
2874, 518.750000, 0.000000, 1106.892808
2875, 508.782364, 101.203105, 1106.892808
2876, 515.625000, 0.000000, 1106.817995
2877, 518.750000, 0.000000, 1082.386000
2878, 505.717410, 100.593447, 1106.817995
2879, 508.782364, 101.203105, 1082.386000
2880, 516.252077, 50.846392, 1106.892808
2881, 479.262507, 198.517031, 1106.892808
2882, 476.375384, 197.321145, 1106.817995
2883, 479.262507, 198.517031, 1082.386000
2884, 496.412799, 150.585176, 1106.892808
2885, 431.324861, 288.202058, 1106.892808
2886, 428.726519, 286.465901, 1106.817995
2887, 431.324861, 288.202058, 1082.386000
2888, 457.496656, 244.537057, 1106.892808
2889, 366.811643, 366.811643, 1106.892808
2890, 364.601934, 364.601934, 1106.817995
2891, 366.811643, 366.811643, 1082.386000
2892, 400.999173, 329.091516, 1106.892808
2893, 288.202058, 431.324861, 1106.892808
2894, 286.465901, 428.726519, 1106.817995
2895, 288.202058, 431.324861, 1082.386000
2896, 329.091516, 400.999173, 1106.892808
2897, 198.517031, 479.262507, 1106.892808
2898, 197.321145, 476.375384, 1106.817995
2899, 198.517031, 479.262507, 1082.386000
2900, 244.537057, 457.496656, 1106.892808
2901, 101.203105, 508.782364, 1106.892808
2902, 100.593447, 505.717410, 1106.817995
2903, 101.203105, 508.782364, 1082.386000
2904, 150.585176, 496.412799, 1106.892808
2905, 0.000000, 518.750000, 1106.892808
2906, 0.000000, 515.625000, 1106.817995
2907, 0.000000, 518.750000, 1082.386000
2908, 50.846392, 516.252077, 1106.892808
2909, 525.000000, 0.000000, 1107.042434
2910, 514.912272, 102.422419, 1107.042434
2911, 521.875000, 0.000000, 1106.967621
2912, 525.000000, 0.000000, 1082.532314
2913, 511.847318, 101.812762, 1106.967621
2914, 514.912272, 102.422419, 1082.532314
2915, 522.471982, 51.458999, 1107.042434
2916, 485.036755, 200.908802, 1107.042434
2917, 482.149631, 199.712916, 1106.967621
2918, 485.036755, 200.908802, 1082.532314
2919, 502.393676, 152.399456, 1107.042434
2920, 436.521546, 291.674372, 1107.042434
2921, 433.923204, 289.938215, 1106.967621
2922, 436.521546, 291.674372, 1082.532314
2923, 463.008664, 247.483287, 1107.042434
2924, 371.231060, 371.231060, 1107.042434
2925, 369.021351, 369.021351, 1106.967621
2926, 371.231060, 371.231060, 1082.532314
2927, 405.830488, 333.056474, 1107.042434
2928, 291.674372, 436.521546, 1107.042434
2929, 289.938215, 433.923204, 1106.967621
2930, 291.674372, 436.521546, 1082.532314
2931, 333.056474, 405.830488, 1107.042434
2932, 200.908802, 485.036755, 1107.042434
2933, 199.712916, 482.149631, 1106.967621
2934, 200.908802, 485.036755, 1082.532314
2935, 247.483287, 463.008664, 1107.042434
2936, 102.422419, 514.912272, 1107.042434
2937, 101.812762, 511.847318, 1106.967621
2938, 102.422419, 514.912272, 1082.532314
2939, 152.399456, 502.393676, 1107.042434
2940, 0.000000, 525.000000, 1107.042434
2941, 0.000000, 521.875000, 1106.967621
2942, 0.000000, 525.000000, 1082.532314
2943, 51.458999, 522.471982, 1107.042434
2944, 500.000000, 0.000000, 1153.752023
2945, 506.250000, 0.000000, 1153.908046
2946, 490.392640, 97.545161, 1153.752023
2947, 496.522548, 98.764476, 1153.908046
2948, 500.000000, 0.000000, 1130.381864
2949, 503.125000, 0.000000, 1153.830034
2950, 506.250000, 0.000000, 1130.534727
2951, 490.392640, 97.545161, 1130.381864
2952, 493.457594, 98.154818, 1153.830034
2953, 496.522548, 98.764476, 1130.534727
2954, 497.592363, 49.008570, 1153.752023
2955, 503.812268, 49.621177, 1153.908046
2956, 461.939766, 191.341716, 1153.752023
2957, 467.714013, 193.733488, 1153.908046
2958, 461.939766, 191.341716, 1130.381864
2959, 464.826890, 192.537602, 1153.830034
2960, 467.714013, 193.733488, 1130.534727
2961, 478.470168, 145.142339, 1153.752023
2962, 484.451045, 146.956618, 1153.908046
2963, 415.734806, 277.785117, 1153.752023
2964, 420.931491, 281.257430, 1153.908046
2965, 415.734806, 277.785117, 1130.381864
2966, 418.333149, 279.521273, 1153.830034
2967, 420.931491, 281.257430, 1130.534727
2968, 440.960632, 235.698368, 1153.752023
2969, 446.472640, 238.644598, 1153.908046
2970, 353.553391, 353.553391, 1153.752023
2971, 357.972808, 357.972808, 1153.908046
2972, 353.553391, 353.553391, 1130.381864
2973, 355.763099, 355.763099, 1153.830034
2974, 357.972808, 357.972808, 1130.534727
2975, 386.505227, 317.196642, 1153.752023
2976, 391.336542, 321.161600, 1153.908046
2977, 277.785117, 415.734806, 1153.752023
2978, 281.257430, 420.931491, 1153.908046
2979, 277.785117, 415.734806, 1130.381864
2980, 279.521273, 418.333149, 1153.830034
2981, 281.257430, 420.931491, 1130.534727
2982, 317.196642, 386.505227, 1153.752023
2983, 321.161600, 391.336542, 1153.908046
2984, 191.341716, 461.939766, 1153.752023
2985, 193.733488, 467.714013, 1153.908046
2986, 191.341716, 461.939766, 1130.381864
2987, 192.537602, 464.826890, 1153.830034
2988, 193.733488, 467.714013, 1130.534727
2989, 235.698368, 440.960632, 1153.752023
2990, 238.644598, 446.472640, 1153.908046
2991, 97.545161, 490.392640, 1153.752023
2992, 98.764476, 496.522548, 1153.908046
2993, 97.545161, 490.392640, 1130.381864
2994, 98.154818, 493.457594, 1153.830034
2995, 98.764476, 496.522548, 1130.534727
2996, 145.142339, 478.470168, 1153.752023
2997, 146.956618, 484.451045, 1153.908046
2998, 0.000000, 500.000000, 1153.752023
2999, 0.000000, 506.250000, 1153.908046
3000, 0.000000, 500.000000, 1130.381864
3001, 0.000000, 503.125000, 1153.830034
3002, 0.000000, 506.250000, 1130.534727
3003, 49.008570, 497.592363, 1153.752023
3004, 49.621177, 503.812268, 1153.908046
3005, 512.500000, 0.000000, 1154.064070
3006, 502.652456, 99.983790, 1154.064070
3007, 509.375000, 0.000000, 1153.986058
3008, 512.500000, 0.000000, 1130.687590
3009, 499.587502, 99.374133, 1153.986058
3010, 502.652456, 99.983790, 1130.687590
3011, 510.032172, 50.233784, 1154.064070
3012, 473.488260, 196.125259, 1154.064070
3013, 470.601137, 194.929373, 1153.986058
3014, 473.488260, 196.125259, 1130.687590
3015, 490.431922, 148.770897, 1154.064070
3016, 426.128176, 284.729744, 1154.064070
3017, 423.529834, 282.993587, 1153.986058
3018, 426.128176, 284.729744, 1130.687590
3019, 451.984648, 241.590828, 1154.064070
3020, 362.392225, 362.392225, 1154.064070
3021, 360.182517, 360.182517, 1153.986058
3022, 362.392225, 362.392225, 1130.687590
3023, 396.167857, 325.126558, 1154.064070
3024, 284.729744, 426.128176, 1154.064070
3025, 282.993587, 423.529834, 1153.986058
3026, 284.729744, 426.128176, 1130.687590
3027, 325.126558, 396.167857, 1154.064070
3028, 196.125259, 473.488260, 1154.064070
3029, 194.929373, 470.601137, 1153.986058
3030, 196.125259, 473.488260, 1130.687590
3031, 241.590828, 451.984648, 1154.064070
3032, 99.983790, 502.652456, 1154.064070
3033, 99.374133, 499.587502, 1153.986058
3034, 99.983790, 502.652456, 1130.687590
3035, 148.770897, 490.431922, 1154.064070
3036, 0.000000, 512.500000, 1154.064070
3037, 0.000000, 509.375000, 1153.986058
3038, 0.000000, 512.500000, 1130.687590
3039, 50.233784, 510.032172, 1154.064070
3040, 518.750000, 0.000000, 1154.220093
3041, 508.782364, 101.203105, 1154.220093
3042, 515.625000, 0.000000, 1154.142081
3043, 518.750000, 0.000000, 1130.840453
3044, 505.717410, 100.593447, 1154.142081
3045, 508.782364, 101.203105, 1130.840453
3046, 516.252077, 50.846392, 1154.220093
3047, 479.262507, 198.517031, 1154.220093
3048, 476.375384, 197.321145, 1154.142081
3049, 479.262507, 198.517031, 1130.840453
3050, 496.412799, 150.585176, 1154.220093
3051, 431.324861, 288.202058, 1154.220093
3052, 428.726519, 286.465901, 1154.142081
3053, 431.324861, 288.202058, 1130.840453
3054, 457.496656, 244.537057, 1154.220093
3055, 366.811643, 366.811643, 1154.220093
3056, 364.601934, 364.601934, 1154.142081
3057, 366.811643, 366.811643, 1130.840453
3058, 400.999173, 329.091516, 1154.220093
3059, 288.202058, 431.324861, 1154.220093
3060, 286.465901, 428.726519, 1154.142081
3061, 288.202058, 431.324861, 1130.840453
3062, 329.091516, 400.999173, 1154.220093
3063, 198.517031, 479.262507, 1154.220093
3064, 197.321145, 476.375384, 1154.142081
3065, 198.517031, 479.262507, 1130.840453
3066, 244.537057, 457.496656, 1154.220093
3067, 101.203105, 508.782364, 1154.220093
3068, 100.593447, 505.717410, 1154.142081
3069, 101.203105, 508.782364, 1130.840453
3070, 150.585176, 496.412799, 1154.220093
3071, 0.000000, 518.750000, 1154.220093
3072, 0.000000, 515.625000, 1154.142081
3073, 0.000000, 518.750000, 1130.840453
3074, 50.846392, 516.252077, 1154.220093
3075, 525.000000, 0.000000, 1154.376117
3076, 514.912272, 102.422419, 1154.376117
3077, 521.875000, 0.000000, 1154.298105
3078, 525.000000, 0.000000, 1130.993317
3079, 511.847318, 101.812762, 1154.298105
3080, 514.912272, 102.422419, 1130.993317
3081, 522.471982, 51.458999, 1154.376117
3082, 485.036755, 200.908802, 1154.376117
3083, 482.149631, 199.712916, 1154.298105
3084, 485.036755, 200.908802, 1130.993317
3085, 502.393676, 152.399456, 1154.376117
3086, 436.521546, 291.674372, 1154.376117
3087, 433.923204, 289.938215, 1154.298105
3088, 436.521546, 291.674372, 1130.993317
3089, 463.008664, 247.483287, 1154.376117
3090, 371.231060, 371.231060, 1154.376117
3091, 369.021351, 369.021351, 1154.298105
3092, 371.231060, 371.231060, 1130.993317
3093, 405.830488, 333.056474, 1154.376117
3094, 291.674372, 436.521546, 1154.376117
3095, 289.938215, 433.923204, 1154.298105
3096, 291.674372, 436.521546, 1130.993317
3097, 333.056474, 405.830488, 1154.376117
3098, 200.908802, 485.036755, 1154.376117
3099, 199.712916, 482.149631, 1154.298105
3100, 200.908802, 485.036755, 1130.993317
3101, 247.483287, 463.008664, 1154.376117
3102, 102.422419, 514.912272, 1154.376117
3103, 101.812762, 511.847318, 1154.298105
3104, 102.422419, 514.912272, 1130.993317
3105, 152.399456, 502.393676, 1154.376117
3106, 0.000000, 525.000000, 1154.376117
3107, 0.000000, 521.875000, 1154.298105
3108, 0.000000, 525.000000, 1130.993317
3109, 51.458999, 522.471982, 1154.376117
3110, 500.000000, 0.000000, 1198.751046
3111, 506.250000, 0.000000, 1198.913155
3112, 490.392640, 97.545161, 1198.751046
3113, 496.522548, 98.764476, 1198.913155
3114, 500.000000, 0.000000, 1176.545054
3115, 503.125000, 0.000000, 1198.832100
3116, 506.250000, 0.000000, 1176.704160
3117, 490.392640, 97.545161, 1176.545054
3118, 493.457594, 98.154818, 1198.832100
3119, 496.522548, 98.764476, 1176.704160
3120, 497.592363, 49.008570, 1198.751046
3121, 503.812268, 49.621177, 1198.913155
3122, 461.939766, 191.341716, 1198.751046
3123, 467.714013, 193.733488, 1198.913155
3124, 461.939766, 191.341716, 1176.545054
3125, 464.826890, 192.537602, 1198.832100
3126, 467.714013, 193.733488, 1176.704160
3127, 478.470168, 145.142339, 1198.751046
3128, 484.451045, 146.956618, 1198.913155
3129, 415.734806, 277.785117, 1198.751046
3130, 420.931491, 281.257430, 1198.913155
3131, 415.734806, 277.785117, 1176.545054
3132, 418.333149, 279.521273, 1198.832100
3133, 420.931491, 281.257430, 1176.704160
3134, 440.960632, 235.698368, 1198.751046
3135, 446.472640, 238.644598, 1198.913155
3136, 353.553391, 353.553391, 1198.751046
3137, 357.972808, 357.972808, 1198.913155
3138, 353.553391, 353.553391, 1176.545054
3139, 355.763099, 355.763099, 1198.832100
3140, 357.972808, 357.972808, 1176.704160
3141, 386.505227, 317.196642, 1198.751046
3142, 391.336542, 321.161600, 1198.913155
3143, 277.785117, 415.734806, 1198.751046
3144, 281.257430, 420.931491, 1198.913155
3145, 277.785117, 415.734806, 1176.545054
3146, 279.521273, 418.333149, 1198.832100
3147, 281.257430, 420.931491, 1176.704160
3148, 317.196642, 386.505227, 1198.751046
3149, 321.161600, 391.336542, 1198.913155
3150, 191.341716, 461.939766, 1198.751046
3151, 193.733488, 467.714013, 1198.913155
3152, 191.341716, 461.939766, 1176.545054
3153, 192.537602, 464.826890, 1198.832100
3154, 193.733488, 467.714013, 1176.704160
3155, 235.698368, 440.960632, 1198.751046
3156, 238.644598, 446.472640, 1198.913155
3157, 97.545161, 490.392640, 1198.751046
3158, 98.764476, 496.522548, 1198.913155
3159, 97.545161, 490.392640, 1176.545054
3160, 98.154818, 493.457594, 1198.832100
3161, 98.764476, 496.522548, 1176.704160
3162, 145.142339, 478.470168, 1198.751046
3163, 146.956618, 484.451045, 1198.913155
3164, 0.000000, 500.000000, 1198.751046
3165, 0.000000, 506.250000, 1198.913155
3166, 0.000000, 500.000000, 1176.545054
3167, 0.000000, 503.125000, 1198.832100
3168, 0.000000, 506.250000, 1176.704160
3169, 49.008570, 497.592363, 1198.751046
3170, 49.621177, 503.812268, 1198.913155
3171, 512.500000, 0.000000, 1199.075263
3172, 502.652456, 99.983790, 1199.075263
3173, 509.375000, 0.000000, 1198.994209
3174, 512.500000, 0.000000, 1176.863266
3175, 499.587502, 99.374133, 1198.994209
3176, 502.652456, 99.983790, 1176.863266
3177, 510.032172, 50.233784, 1199.075263
3178, 473.488260, 196.125259, 1199.075263
3179, 470.601137, 194.929373, 1198.994209
3180, 473.488260, 196.125259, 1176.863266
3181, 490.431922, 148.770897, 1199.075263
3182, 426.128176, 284.729744, 1199.075263
3183, 423.529834, 282.993587, 1198.994209
3184, 426.128176, 284.729744, 1176.863266
3185, 451.984648, 241.590828, 1199.075263
3186, 362.392225, 362.392225, 1199.075263
3187, 360.182517, 360.182517, 1198.994209
3188, 362.392225, 362.392225, 1176.863266
3189, 396.167857, 325.126558, 1199.075263
3190, 284.729744, 426.128176, 1199.075263
3191, 282.993587, 423.529834, 1198.994209
3192, 284.729744, 426.128176, 1176.863266
3193, 325.126558, 396.167857, 1199.075263
3194, 196.125259, 473.488260, 1199.075263
3195, 194.929373, 470.601137, 1198.994209
3196, 196.125259, 473.488260, 1176.863266
3197, 241.590828, 451.984648, 1199.075263
3198, 99.983790, 502.652456, 1199.075263
3199, 99.374133, 499.587502, 1198.994209
3200, 99.983790, 502.652456, 1176.863266
3201, 148.770897, 490.431922, 1199.075263
3202, 0.000000, 512.500000, 1199.075263
3203, 0.000000, 509.375000, 1198.994209
3204, 0.000000, 512.500000, 1176.863266
3205, 50.233784, 510.032172, 1199.075263
3206, 518.750000, 0.000000, 1199.237372
3207, 508.782364, 101.203105, 1199.237372
3208, 515.625000, 0.000000, 1199.156318
3209, 518.750000, 0.000000, 1177.022372
3210, 505.717410, 100.593447, 1199.156318
3211, 508.782364, 101.203105, 1177.022372
3212, 516.252077, 50.846392, 1199.237372
3213, 479.262507, 198.517031, 1199.237372
3214, 476.375384, 197.321145, 1199.156318
3215, 479.262507, 198.517031, 1177.022372
3216, 496.412799, 150.585176, 1199.237372
3217, 431.324861, 288.202058, 1199.237372
3218, 428.726519, 286.465901, 1199.156318
3219, 431.324861, 288.202058, 1177.022372
3220, 457.496656, 244.537057, 1199.237372
3221, 366.811643, 366.811643, 1199.237372
3222, 364.601934, 364.601934, 1199.156318
3223, 366.811643, 366.811643, 1177.022372
3224, 400.999173, 329.091516, 1199.237372
3225, 288.202058, 431.324861, 1199.237372
3226, 286.465901, 428.726519, 1199.156318
3227, 288.202058, 431.324861, 1177.022372
3228, 329.091516, 400.999173, 1199.237372
3229, 198.517031, 479.262507, 1199.237372
3230, 197.321145, 476.375384, 1199.156318
3231, 198.517031, 479.262507, 1177.022372
3232, 244.537057, 457.496656, 1199.237372
3233, 101.203105, 508.782364, 1199.237372
3234, 100.593447, 505.717410, 1199.156318
3235, 101.203105, 508.782364, 1177.022372
3236, 150.585176, 496.412799, 1199.237372
3237, 0.000000, 518.750000, 1199.237372
3238, 0.000000, 515.625000, 1199.156318
3239, 0.000000, 518.750000, 1177.022372
3240, 50.846392, 516.252077, 1199.237372
3241, 525.000000, 0.000000, 1199.399481
3242, 514.912272, 102.422419, 1199.399481
3243, 521.875000, 0.000000, 1199.318427
3244, 525.000000, 0.000000, 1177.181478
3245, 511.847318, 101.812762, 1199.318427
3246, 514.912272, 102.422419, 1177.181478
3247, 522.471982, 51.458999, 1199.399481
3248, 485.036755, 200.908802, 1199.399481
3249, 482.149631, 199.712916, 1199.318427
3250, 485.036755, 200.908802, 1177.181478
3251, 502.393676, 152.399456, 1199.399481
3252, 436.521546, 291.674372, 1199.399481
3253, 433.923204, 289.938215, 1199.318427
3254, 436.521546, 291.674372, 1177.181478
3255, 463.008664, 247.483287, 1199.399481
3256, 371.231060, 371.231060, 1199.399481
3257, 369.021351, 369.021351, 1199.318427
3258, 371.231060, 371.231060, 1177.181478
3259, 405.830488, 333.056474, 1199.399481
3260, 291.674372, 436.521546, 1199.399481
3261, 289.938215, 433.923204, 1199.318427
3262, 291.674372, 436.521546, 1177.181478
3263, 333.056474, 405.830488, 1199.399481
3264, 200.908802, 485.036755, 1199.399481
3265, 199.712916, 482.149631, 1199.318427
3266, 200.908802, 485.036755, 1177.181478
3267, 247.483287, 463.008664, 1199.399481
3268, 102.422419, 514.912272, 1199.399481
3269, 101.812762, 511.847318, 1199.318427
3270, 102.422419, 514.912272, 1177.181478
3271, 152.399456, 502.393676, 1199.399481
3272, 0.000000, 525.000000, 1199.399481
3273, 0.000000, 521.875000, 1199.318427
3274, 0.000000, 525.000000, 1177.181478
3275, 51.458999, 522.471982, 1199.399481
3276, 500.000000, 0.000000, 1241.359071
3277, 506.250000, 0.000000, 1241.526942
3278, 490.392640, 97.545161, 1241.359071
3279, 496.522548, 98.764476, 1241.526942
3280, 500.000000, 0.000000, 1220.359461
3281, 503.125000, 0.000000, 1241.443006
3282, 506.250000, 0.000000, 1220.524492
3283, 490.392640, 97.545161, 1220.359461
3284, 493.457594, 98.154818, 1241.443006
3285, 496.522548, 98.764476, 1220.524492
3286, 497.592363, 49.008570, 1241.359071
3287, 503.812268, 49.621177, 1241.526942
3288, 461.939766, 191.341716, 1241.359071
3289, 467.714013, 193.733488, 1241.526942
3290, 461.939766, 191.341716, 1220.359461
3291, 464.826890, 192.537602, 1241.443006
3292, 467.714013, 193.733488, 1220.524492
3293, 478.470168, 145.142339, 1241.359071
3294, 484.451045, 146.956618, 1241.526942
3295, 415.734806, 277.785117, 1241.359071
3296, 420.931491, 281.257430, 1241.526942
3297, 415.734806, 277.785117, 1220.359461
3298, 418.333149, 279.521273, 1241.443006
3299, 420.931491, 281.257430, 1220.524492
3300, 440.960632, 235.698368, 1241.359071
3301, 446.472640, 238.644598, 1241.526942
3302, 353.553391, 353.553391, 1241.359071
3303, 357.972808, 357.972808, 1241.526942
3304, 353.553391, 353.553391, 1220.359461
3305, 355.763099, 355.763099, 1241.443006
3306, 357.972808, 357.972808, 1220.524492
3307, 386.505227, 317.196642, 1241.359071
3308, 391.336542, 321.161600, 1241.526942
3309, 277.785117, 415.734806, 1241.359071
3310, 281.257430, 420.931491, 1241.526942
3311, 277.785117, 415.734806, 1220.359461
3312, 279.521273, 418.333149, 1241.443006
3313, 281.257430, 420.931491, 1220.524492
3314, 317.196642, 386.505227, 1241.359071
3315, 321.161600, 391.336542, 1241.526942
3316, 191.341716, 461.939766, 1241.359071
3317, 193.733488, 467.714013, 1241.526942
3318, 191.341716, 461.939766, 1220.359461
3319, 192.537602, 464.826890, 1241.443006
3320, 193.733488, 467.714013, 1220.524492
3321, 235.698368, 440.960632, 1241.359071
3322, 238.644598, 446.472640, 1241.526942
3323, 97.545161, 490.392640, 1241.359071
3324, 98.764476, 496.522548, 1241.526942
3325, 97.545161, 490.392640, 1220.359461
3326, 98.154818, 493.457594, 1241.443006
3327, 98.764476, 496.522548, 1220.524492
3328, 145.142339, 478.470168, 1241.359071
3329, 146.956618, 484.451045, 1241.526942
3330, 0.000000, 500.000000, 1241.359071
3331, 0.000000, 506.250000, 1241.526942
3332, 0.000000, 500.000000, 1220.359461
3333, 0.000000, 503.125000, 1241.443006
3334, 0.000000, 506.250000, 1220.524492
3335, 49.008570, 497.592363, 1241.359071
3336, 49.621177, 503.812268, 1241.526942
3337, 512.500000, 0.000000, 1241.694812
3338, 502.652456, 99.983790, 1241.694812
3339, 509.375000, 0.000000, 1241.610877
3340, 512.500000, 0.000000, 1220.689523
3341, 499.587502, 99.374133, 1241.610877
3342, 502.652456, 99.983790, 1220.689523
3343, 510.032172, 50.233784, 1241.694812
3344, 473.488260, 196.125259, 1241.694812
3345, 470.601137, 194.929373, 1241.610877
3346, 473.488260, 196.125259, 1220.689523
3347, 490.431922, 148.770897, 1241.694812
3348, 426.128176, 284.729744, 1241.694812
3349, 423.529834, 282.993587, 1241.610877
3350, 426.128176, 284.729744, 1220.689523
3351, 451.984648, 241.590828, 1241.694812
3352, 362.392225, 362.392225, 1241.694812
3353, 360.182517, 360.182517, 1241.610877
3354, 362.392225, 362.392225, 1220.689523
3355, 396.167857, 325.126558, 1241.694812
3356, 284.729744, 426.128176, 1241.694812
3357, 282.993587, 423.529834, 1241.610877
3358, 284.729744, 426.128176, 1220.689523
3359, 325.126558, 396.167857, 1241.694812
3360, 196.125259, 473.488260, 1241.694812
3361, 194.929373, 470.601137, 1241.610877
3362, 196.125259, 473.488260, 1220.689523
3363, 241.590828, 451.984648, 1241.694812
3364, 99.983790, 502.652456, 1241.694812
3365, 99.374133, 499.587502, 1241.610877
3366, 99.983790, 502.652456, 1220.689523
3367, 148.770897, 490.431922, 1241.694812
3368, 0.000000, 512.500000, 1241.694812
3369, 0.000000, 509.375000, 1241.610877
3370, 0.000000, 512.500000, 1220.689523
3371, 50.233784, 510.032172, 1241.694812
3372, 518.750000, 0.000000, 1241.862683
3373, 508.782364, 101.203105, 1241.862683
3374, 515.625000, 0.000000, 1241.778748
3375, 518.750000, 0.000000, 1220.854554
3376, 505.717410, 100.593447, 1241.778748
3377, 508.782364, 101.203105, 1220.854554
3378, 516.252077, 50.846392, 1241.862683
3379, 479.262507, 198.517031, 1241.862683
3380, 476.375384, 197.321145, 1241.778748
3381, 479.262507, 198.517031, 1220.854554
3382, 496.412799, 150.585176, 1241.862683
3383, 431.324861, 288.202058, 1241.862683
3384, 428.726519, 286.465901, 1241.778748
3385, 431.324861, 288.202058, 1220.854554
3386, 457.496656, 244.537057, 1241.862683
3387, 366.811643, 366.811643, 1241.862683
3388, 364.601934, 364.601934, 1241.778748
3389, 366.811643, 366.811643, 1220.854554
3390, 400.999173, 329.091516, 1241.862683
3391, 288.202058, 431.324861, 1241.862683
3392, 286.465901, 428.726519, 1241.778748
3393, 288.202058, 431.324861, 1220.854554
3394, 329.091516, 400.999173, 1241.862683
3395, 198.517031, 479.262507, 1241.862683
3396, 197.321145, 476.375384, 1241.778748
3397, 198.517031, 479.262507, 1220.854554
3398, 244.537057, 457.496656, 1241.862683
3399, 101.203105, 508.782364, 1241.862683
3400, 100.593447, 505.717410, 1241.778748
3401, 101.203105, 508.782364, 1220.854554
3402, 150.585176, 496.412799, 1241.862683
3403, 0.000000, 518.750000, 1241.862683
3404, 0.000000, 515.625000, 1241.778748
3405, 0.000000, 518.750000, 1220.854554
3406, 50.846392, 516.252077, 1241.862683
3407, 525.000000, 0.000000, 1242.030554
3408, 514.912272, 102.422419, 1242.030554
3409, 521.875000, 0.000000, 1241.946618
3410, 525.000000, 0.000000, 1221.019585
3411, 511.847318, 101.812762, 1241.946618
3412, 514.912272, 102.422419, 1221.019585
3413, 522.471982, 51.458999, 1242.030554
3414, 485.036755, 200.908802, 1242.030554
3415, 482.149631, 199.712916, 1241.946618
3416, 485.036755, 200.908802, 1221.019585
3417, 502.393676, 152.399456, 1242.030554
3418, 436.521546, 291.674372, 1242.030554
3419, 433.923204, 289.938215, 1241.946618
3420, 436.521546, 291.674372, 1221.019585
3421, 463.008664, 247.483287, 1242.030554
3422, 371.231060, 371.231060, 1242.030554
3423, 369.021351, 369.021351, 1241.946618
3424, 371.231060, 371.231060, 1221.019585
3425, 405.830488, 333.056474, 1242.030554
3426, 291.674372, 436.521546, 1242.030554
3427, 289.938215, 433.923204, 1241.946618
3428, 291.674372, 436.521546, 1221.019585
3429, 333.056474, 405.830488, 1242.030554
3430, 200.908802, 485.036755, 1242.030554
3431, 199.712916, 482.149631, 1241.946618
3432, 200.908802, 485.036755, 1221.019585
3433, 247.483287, 463.008664, 1242.030554
3434, 102.422419, 514.912272, 1242.030554
3435, 101.812762, 511.847318, 1241.946618
3436, 102.422419, 514.912272, 1221.019585
3437, 152.399456, 502.393676, 1242.030554
3438, 0.000000, 525.000000, 1242.030554
3439, 0.000000, 521.875000, 1241.946618
3440, 0.000000, 525.000000, 1221.019585
3441, 51.458999, 522.471982, 1242.030554
3442, 500.000000, 0.000000, 1281.482981
3443, 506.250000, 0.000000, 1281.656278
3444, 490.392640, 97.545161, 1281.482981
3445, 496.522548, 98.764476, 1281.656278
3446, 500.000000, 0.000000, 1261.737870
3447, 503.125000, 0.000000, 1281.569630
3448, 506.250000, 0.000000, 1261.908497
3449, 490.392640, 97.545161, 1261.737870
3450, 493.457594, 98.154818, 1281.569630
3451, 496.522548, 98.764476, 1261.908497
3452, 497.592363, 49.008570, 1281.482981
3453, 503.812268, 49.621177, 1281.656278
3454, 461.939766, 191.341716, 1281.482981
3455, 467.714013, 193.733488, 1281.656278
3456, 461.939766, 191.341716, 1261.737870
3457, 464.826890, 192.537602, 1281.569630
3458, 467.714013, 193.733488, 1261.908497
3459, 478.470168, 145.142339, 1281.482981
3460, 484.451045, 146.956618, 1281.656278
3461, 415.734806, 277.785117, 1281.482981
3462, 420.931491, 281.257430, 1281.656278
3463, 415.734806, 277.785117, 1261.737870
3464, 418.333149, 279.521273, 1281.569630
3465, 420.931491, 281.257430, 1261.908497
3466, 440.960632, 235.698368, 1281.482981
3467, 446.472640, 238.644598, 1281.656278
3468, 353.553391, 353.553391, 1281.482981
3469, 357.972808, 357.972808, 1281.656278
3470, 353.553391, 353.553391, 1261.737870
3471, 355.763099, 355.763099, 1281.569630
3472, 357.972808, 357.972808, 1261.908497
3473, 386.505227, 317.196642, 1281.482981
3474, 391.336542, 321.161600, 1281.656278
3475, 277.785117, 415.734806, 1281.482981
3476, 281.257430, 420.931491, 1281.656278
3477, 277.785117, 415.734806, 1261.737870
3478, 279.521273, 418.333149, 1281.569630
3479, 281.257430, 420.931491, 1261.908497
3480, 317.196642, 386.505227, 1281.482981
3481, 321.161600, 391.336542, 1281.656278
3482, 191.341716, 461.939766, 1281.482981
3483, 193.733488, 467.714013, 1281.656278
3484, 191.341716, 461.939766, 1261.737870
3485, 192.537602, 464.826890, 1281.569630
3486, 193.733488, 467.714013, 1261.908497
3487, 235.698368, 440.960632, 1281.482981
3488, 238.644598, 446.472640, 1281.656278
3489, 97.545161, 490.392640, 1281.482981
3490, 98.764476, 496.522548, 1281.656278
3491, 97.545161, 490.392640, 1261.737870
3492, 98.154818, 493.457594, 1281.569630
3493, 98.764476, 496.522548, 1261.908497
3494, 145.142339, 478.470168, 1281.482981
3495, 146.956618, 484.451045, 1281.656278
3496, 0.000000, 500.000000, 1281.482981
3497, 0.000000, 506.250000, 1281.656278
3498, 0.000000, 500.000000, 1261.737870
3499, 0.000000, 503.125000, 1281.569630
3500, 0.000000, 506.250000, 1261.908497
3501, 49.008570, 497.592363, 1281.482981
3502, 49.621177, 503.812268, 1281.656278
3503, 512.500000, 0.000000, 1281.829575
3504, 502.652456, 99.983790, 1281.829575
3505, 509.375000, 0.000000, 1281.742926
3506, 512.500000, 0.000000, 1262.079123
3507, 499.587502, 99.374133, 1281.742926
3508, 502.652456, 99.983790, 1262.079123
3509, 510.032172, 50.233784, 1281.829575
3510, 473.488260, 196.125259, 1281.829575
3511, 470.601137, 194.929373, 1281.742926
3512, 473.488260, 196.125259, 1262.079123
3513, 490.431922, 148.770897, 1281.829575
3514, 426.128176, 284.729744, 1281.829575
3515, 423.529834, 282.993587, 1281.742926
3516, 426.128176, 284.729744, 1262.079123
3517, 451.984648, 241.590828, 1281.829575
3518, 362.392225, 362.392225, 1281.829575
3519, 360.182517, 360.182517, 1281.742926
3520, 362.392225, 362.392225, 1262.079123
3521, 396.167857, 325.126558, 1281.829575
3522, 284.729744, 426.128176, 1281.829575
3523, 282.993587, 423.529834, 1281.742926
3524, 284.729744, 426.128176, 1262.079123
3525, 325.126558, 396.167857, 1281.829575
3526, 196.125259, 473.488260, 1281.829575
3527, 194.929373, 470.601137, 1281.742926
3528, 196.125259, 473.488260, 1262.079123
3529, 241.590828, 451.984648, 1281.829575
3530, 99.983790, 502.652456, 1281.829575
3531, 99.374133, 499.587502, 1281.742926
3532, 99.983790, 502.652456, 1262.079123
3533, 148.770897, 490.431922, 1281.829575
3534, 0.000000, 512.500000, 1281.829575
3535, 0.000000, 509.375000, 1281.742926
3536, 0.000000, 512.500000, 1262.079123
3537, 50.233784, 510.032172, 1281.829575
3538, 518.750000, 0.000000, 1282.002871
3539, 508.782364, 101.203105, 1282.002871
3540, 515.625000, 0.000000, 1281.916223
3541, 518.750000, 0.000000, 1262.249750
3542, 505.717410, 100.593447, 1281.916223
3543, 508.782364, 101.203105, 1262.249750
3544, 516.252077, 50.846392, 1282.002871
3545, 479.262507, 198.517031, 1282.002871
3546, 476.375384, 197.321145, 1281.916223
3547, 479.262507, 198.517031, 1262.249750
3548, 496.412799, 150.585176, 1282.002871
3549, 431.324861, 288.202058, 1282.002871
3550, 428.726519, 286.465901, 1281.916223
3551, 431.324861, 288.202058, 1262.249750
3552, 457.496656, 244.537057, 1282.002871
3553, 366.811643, 366.811643, 1282.002871
3554, 364.601934, 364.601934, 1281.916223
3555, 366.811643, 366.811643, 1262.249750
3556, 400.999173, 329.091516, 1282.002871
3557, 288.202058, 431.324861, 1282.002871
3558, 286.465901, 428.726519, 1281.916223
3559, 288.202058, 431.324861, 1262.249750
3560, 329.091516, 400.999173, 1282.002871
3561, 198.517031, 479.262507, 1282.002871
3562, 197.321145, 476.375384, 1281.916223
3563, 198.517031, 479.262507, 1262.249750
3564, 244.537057, 457.496656, 1282.002871
3565, 101.203105, 508.782364, 1282.002871
3566, 100.593447, 505.717410, 1281.916223
3567, 101.203105, 508.782364, 1262.249750
3568, 150.585176, 496.412799, 1282.002871
3569, 0.000000, 518.750000, 1282.002871
3570, 0.000000, 515.625000, 1281.916223
3571, 0.000000, 518.750000, 1262.249750
3572, 50.846392, 516.252077, 1282.002871
3573, 525.000000, 0.000000, 1282.176168
3574, 514.912272, 102.422419, 1282.176168
3575, 521.875000, 0.000000, 1282.089520
3576, 525.000000, 0.000000, 1262.420376
3577, 511.847318, 101.812762, 1282.089520
3578, 514.912272, 102.422419, 1262.420376
3579, 522.471982, 51.458999, 1282.176168
3580, 485.036755, 200.908802, 1282.176168
3581, 482.149631, 199.712916, 1282.089520
3582, 485.036755, 200.908802, 1262.420376
3583, 502.393676, 152.399456, 1282.176168
3584, 436.521546, 291.674372, 1282.176168
3585, 433.923204, 289.938215, 1282.089520
3586, 436.521546, 291.674372, 1262.420376
3587, 463.008664, 247.483287, 1282.176168
3588, 371.231060, 371.231060, 1282.176168
3589, 369.021351, 369.021351, 1282.089520
3590, 371.231060, 371.231060, 1262.420376
3591, 405.830488, 333.056474, 1282.176168
3592, 291.674372, 436.521546, 1282.176168
3593, 289.938215, 433.923204, 1282.089520
3594, 291.674372, 436.521546, 1262.420376
3595, 333.056474, 405.830488, 1282.176168
3596, 200.908802, 485.036755, 1282.176168
3597, 199.712916, 482.149631, 1282.089520
3598, 200.908802, 485.036755, 1262.420376
3599, 247.483287, 463.008664, 1282.176168
3600, 102.422419, 514.912272, 1282.176168
3601, 101.812762, 511.847318, 1282.089520
3602, 102.422419, 514.912272, 1262.420376
3603, 152.399456, 502.393676, 1282.176168
3604, 0.000000, 525.000000, 1282.176168
3605, 0.000000, 521.875000, 1282.089520
3606, 0.000000, 525.000000, 1262.420376
3607, 51.458999, 522.471982, 1282.176168
3608, 500.000000, 0.000000, 1319.015563
3609, 506.250000, 0.000000, 1319.193935
3610, 490.392640, 97.545161, 1319.015563
3611, 496.522548, 98.764476, 1319.193935
3612, 500.000000, 0.000000, 1300.580541
3613, 503.125000, 0.000000, 1319.104749
3614, 506.250000, 0.000000, 1300.756421
3615, 490.392640, 97.545161, 1300.580541
3616, 493.457594, 98.154818, 1319.104749
3617, 496.522548, 98.764476, 1300.756421
3618, 497.592363, 49.008570, 1319.015563
3619, 503.812268, 49.621177, 1319.193935
3620, 461.939766, 191.341716, 1319.015563
3621, 467.714013, 193.733488, 1319.193935
3622, 461.939766, 191.341716, 1300.580541
3623, 464.826890, 192.537602, 1319.104749
3624, 467.714013, 193.733488, 1300.756421
3625, 478.470168, 145.142339, 1319.015563
3626, 484.451045, 146.956618, 1319.193935
3627, 415.734806, 277.785117, 1319.015563
3628, 420.931491, 281.257430, 1319.193935
3629, 415.734806, 277.785117, 1300.580541
3630, 418.333149, 279.521273, 1319.104749
3631, 420.931491, 281.257430, 1300.756421
3632, 440.960632, 235.698368, 1319.015563
3633, 446.472640, 238.644598, 1319.193935
3634, 353.553391, 353.553391, 1319.015563
3635, 357.972808, 357.972808, 1319.193935
3636, 353.553391, 353.553391, 1300.580541
3637, 355.763099, 355.763099, 1319.104749
3638, 357.972808, 357.972808, 1300.756421
3639, 386.505227, 317.196642, 1319.015563
3640, 391.336542, 321.161600, 1319.193935
3641, 277.785117, 415.734806, 1319.015563
3642, 281.257430, 420.931491, 1319.193935
3643, 277.785117, 415.734806, 1300.580541
3644, 279.521273, 418.333149, 1319.104749
3645, 281.257430, 420.931491, 1300.756421
3646, 317.196642, 386.505227, 1319.015563
3647, 321.161600, 391.336542, 1319.193935
3648, 191.341716, 461.939766, 1319.015563
3649, 193.733488, 467.714013, 1319.193935
3650, 191.341716, 461.939766, 1300.580541
3651, 192.537602, 464.826890, 1319.104749
3652, 193.733488, 467.714013, 1300.756421
3653, 235.698368, 440.960632, 1319.015563
3654, 238.644598, 446.472640, 1319.193935
3655, 97.545161, 490.392640, 1319.015563
3656, 98.764476, 496.522548, 1319.193935
3657, 97.545161, 490.392640, 1300.580541
3658, 98.154818, 493.457594, 1319.104749
3659, 98.764476, 496.522548, 1300.756421
3660, 145.142339, 478.470168, 1319.015563
3661, 146.956618, 484.451045, 1319.193935
3662, 0.000000, 500.000000, 1319.015563
3663, 0.000000, 506.250000, 1319.193935
3664, 0.000000, 500.000000, 1300.580541
3665, 0.000000, 503.125000, 1319.104749
3666, 0.000000, 506.250000, 1300.756421
3667, 49.008570, 497.592363, 1319.015563
3668, 49.621177, 503.812268, 1319.193935
3669, 512.500000, 0.000000, 1319.372308
3670, 502.652456, 99.983790, 1319.372308
3671, 509.375000, 0.000000, 1319.283122
3672, 512.500000, 0.000000, 1300.932300
3673, 499.587502, 99.374133, 1319.283122
3674, 502.652456, 99.983790, 1300.932300
3675, 510.032172, 50.233784, 1319.372308
3676, 473.488260, 196.125259, 1319.372308
3677, 470.601137, 194.929373, 1319.283122
3678, 473.488260, 196.125259, 1300.932300
3679, 490.431922, 148.770897, 1319.372308
3680, 426.128176, 284.729744, 1319.372308
3681, 423.529834, 282.993587, 1319.283122
3682, 426.128176, 284.729744, 1300.932300
3683, 451.984648, 241.590828, 1319.372308
3684, 362.392225, 362.392225, 1319.372308
3685, 360.182517, 360.182517, 1319.283122
3686, 362.392225, 362.392225, 1300.932300
3687, 396.167857, 325.126558, 1319.372308
3688, 284.729744, 426.128176, 1319.372308
3689, 282.993587, 423.529834, 1319.283122
3690, 284.729744, 426.128176, 1300.932300
3691, 325.126558, 396.167857, 1319.372308
3692, 196.125259, 473.488260, 1319.372308
3693, 194.929373, 470.601137, 1319.283122
3694, 196.125259, 473.488260, 1300.932300
3695, 241.590828, 451.984648, 1319.372308
3696, 99.983790, 502.652456, 1319.372308
3697, 99.374133, 499.587502, 1319.283122
3698, 99.983790, 502.652456, 1300.932300
3699, 148.770897, 490.431922, 1319.372308
3700, 0.000000, 512.500000, 1319.372308
3701, 0.000000, 509.375000, 1319.283122
3702, 0.000000, 512.500000, 1300.932300
3703, 50.233784, 510.032172, 1319.372308
3704, 518.750000, 0.000000, 1319.550680
3705, 508.782364, 101.203105, 1319.550680
3706, 515.625000, 0.000000, 1319.461494
3707, 518.750000, 0.000000, 1301.108179
3708, 505.717410, 100.593447, 1319.461494
3709, 508.782364, 101.203105, 1301.108179
3710, 516.252077, 50.846392, 1319.550680
3711, 479.262507, 198.517031, 1319.550680
3712, 476.375384, 197.321145, 1319.461494
3713, 479.262507, 198.517031, 1301.108179
3714, 496.412799, 150.585176, 1319.550680
3715, 431.324861, 288.202058, 1319.550680
3716, 428.726519, 286.465901, 1319.461494
3717, 431.324861, 288.202058, 1301.108179
3718, 457.496656, 244.537057, 1319.550680
3719, 366.811643, 366.811643, 1319.550680
3720, 364.601934, 364.601934, 1319.461494
3721, 366.811643, 366.811643, 1301.108179
3722, 400.999173, 329.091516, 1319.550680
3723, 288.202058, 431.324861, 1319.550680
3724, 286.465901, 428.726519, 1319.461494
3725, 288.202058, 431.324861, 1301.108179
3726, 329.091516, 400.999173, 1319.550680
3727, 198.517031, 479.262507, 1319.550680
3728, 197.321145, 476.375384, 1319.461494
3729, 198.517031, 479.262507, 1301.108179
3730, 244.537057, 457.496656, 1319.550680
3731, 101.203105, 508.782364, 1319.550680
3732, 100.593447, 505.717410, 1319.461494
3733, 101.203105, 508.782364, 1301.108179
3734, 150.585176, 496.412799, 1319.550680
3735, 0.000000, 518.750000, 1319.550680
3736, 0.000000, 515.625000, 1319.461494
3737, 0.000000, 518.750000, 1301.108179
3738, 50.846392, 516.252077, 1319.550680
3739, 525.000000, 0.000000, 1319.729052
3740, 514.912272, 102.422419, 1319.729052
3741, 521.875000, 0.000000, 1319.639866
3742, 525.000000, 0.000000, 1301.284059
3743, 511.847318, 101.812762, 1319.639866
3744, 514.912272, 102.422419, 1301.284059
3745, 522.471982, 51.458999, 1319.729052
3746, 485.036755, 200.908802, 1319.729052
3747, 482.149631, 199.712916, 1319.639866
3748, 485.036755, 200.908802, 1301.284059
3749, 502.393676, 152.399456, 1319.729052
3750, 436.521546, 291.674372, 1319.729052
3751, 433.923204, 289.938215, 1319.639866
3752, 436.521546, 291.674372, 1301.284059
3753, 463.008664, 247.483287, 1319.729052
3754, 371.231060, 371.231060, 1319.729052
3755, 369.021351, 369.021351, 1319.639866
3756, 371.231060, 371.231060, 1301.284059
3757, 405.830488, 333.056474, 1319.729052
3758, 291.674372, 436.521546, 1319.729052
3759, 289.938215, 433.923204, 1319.639866
3760, 291.674372, 436.521546, 1301.284059
3761, 333.056474, 405.830488, 1319.729052
3762, 200.908802, 485.036755, 1319.729052
3763, 199.712916, 482.149631, 1319.639866
3764, 200.908802, 485.036755, 1301.284059
3765, 247.483287, 463.008664, 1319.729052
3766, 102.422419, 514.912272, 1319.729052
3767, 101.812762, 511.847318, 1319.639866
3768, 102.422419, 514.912272, 1301.284059
3769, 152.399456, 502.393676, 1319.729052
3770, 0.000000, 525.000000, 1319.729052
3771, 0.000000, 521.875000, 1319.639866
3772, 0.000000, 525.000000, 1301.284059
3773, 51.458999, 522.471982, 1319.729052
3774, 500.000000, 0.000000, 1353.831391
3775, 506.250000, 0.000000, 1354.014471
3776, 490.392640, 97.545161, 1353.831391
3777, 496.522548, 98.764476, 1354.014471
3778, 500.000000, 0.000000, 1336.771769
3779, 503.125000, 0.000000, 1353.922931
3780, 506.250000, 0.000000, 1336.952543
3781, 490.392640, 97.545161, 1336.771769
3782, 493.457594, 98.154818, 1353.922931
3783, 496.522548, 98.764476, 1336.952543
3784, 497.592363, 49.008570, 1353.831391
3785, 503.812268, 49.621177, 1354.014471
3786, 461.939766, 191.341716, 1353.831391
3787, 467.714013, 193.733488, 1354.014471
3788, 461.939766, 191.341716, 1336.771769
3789, 464.826890, 192.537602, 1353.922931
3790, 467.714013, 193.733488, 1336.952543
3791, 478.470168, 145.142339, 1353.831391
3792, 484.451045, 146.956618, 1354.014471
3793, 415.734806, 277.785117, 1353.831391
3794, 420.931491, 281.257430, 1354.014471
3795, 415.734806, 277.785117, 1336.771769
3796, 418.333149, 279.521273, 1353.922931
3797, 420.931491, 281.257430, 1336.952543
3798, 440.960632, 235.698368, 1353.831391
3799, 446.472640, 238.644598, 1354.014471
3800, 353.553391, 353.553391, 1353.831391
3801, 357.972808, 357.972808, 1354.014471
3802, 353.553391, 353.553391, 1336.771769
3803, 355.763099, 355.763099, 1353.922931
3804, 357.972808, 357.972808, 1336.952543
3805, 386.505227, 317.196642, 1353.831391
3806, 391.336542, 321.161600, 1354.014471
3807, 277.785117, 415.734806, 1353.831391
3808, 281.257430, 420.931491, 1354.014471
3809, 277.785117, 415.734806, 1336.771769
3810, 279.521273, 418.333149, 1353.922931
3811, 281.257430, 420.931491, 1336.952543
3812, 317.196642, 386.505227, 1353.831391
3813, 321.161600, 391.336542, 1354.014471
3814, 191.341716, 461.939766, 1353.831391
3815, 193.733488, 467.714013, 1354.014471
3816, 191.341716, 461.939766, 1336.771769
3817, 192.537602, 464.826890, 1353.922931
3818, 193.733488, 467.714013, 1336.952543
3819, 235.698368, 440.960632, 1353.831391
3820, 238.644598, 446.472640, 1354.014471
3821, 97.545161, 490.392640, 1353.831391
3822, 98.764476, 496.522548, 1354.014471
3823, 97.545161, 490.392640, 1336.771769
3824, 98.154818, 493.457594, 1353.922931
3825, 98.764476, 496.522548, 1336.952543
3826, 145.142339, 478.470168, 1353.831391
3827, 146.956618, 484.451045, 1354.014471
3828, 0.000000, 500.000000, 1353.831391
3829, 0.000000, 506.250000, 1354.014471
3830, 0.000000, 500.000000, 1336.771769
3831, 0.000000, 503.125000, 1353.922931
3832, 0.000000, 506.250000, 1336.952543
3833, 49.008570, 497.592363, 1353.831391
3834, 49.621177, 503.812268, 1354.014471
3835, 512.500000, 0.000000, 1354.197551
3836, 502.652456, 99.983790, 1354.197551
3837, 509.375000, 0.000000, 1354.106011
3838, 512.500000, 0.000000, 1337.133316
3839, 499.587502, 99.374133, 1354.106011
3840, 502.652456, 99.983790, 1337.133316
3841, 510.032172, 50.233784, 1354.197551
3842, 473.488260, 196.125259, 1354.197551
3843, 470.601137, 194.929373, 1354.106011
3844, 473.488260, 196.125259, 1337.133316
3845, 490.431922, 148.770897, 1354.197551
3846, 426.128176, 284.729744, 1354.197551
3847, 423.529834, 282.993587, 1354.106011
3848, 426.128176, 284.729744, 1337.133316
3849, 451.984648, 241.590828, 1354.197551
3850, 362.392225, 362.392225, 1354.197551
3851, 360.182517, 360.182517, 1354.106011
3852, 362.392225, 362.392225, 1337.133316
3853, 396.167857, 325.126558, 1354.197551
3854, 284.729744, 426.128176, 1354.197551
3855, 282.993587, 423.529834, 1354.106011
3856, 284.729744, 426.128176, 1337.133316
3857, 325.126558, 396.167857, 1354.197551
3858, 196.125259, 473.488260, 1354.197551
3859, 194.929373, 470.601137, 1354.106011
3860, 196.125259, 473.488260, 1337.133316
3861, 241.590828, 451.984648, 1354.197551
3862, 99.983790, 502.652456, 1354.197551
3863, 99.374133, 499.587502, 1354.106011
3864, 99.983790, 502.652456, 1337.133316
3865, 148.770897, 490.431922, 1354.197551
3866, 0.000000, 512.500000, 1354.197551
3867, 0.000000, 509.375000, 1354.106011
3868, 0.000000, 512.500000, 1337.133316
3869, 50.233784, 510.032172, 1354.197551
3870, 518.750000, 0.000000, 1354.380632
3871, 508.782364, 101.203105, 1354.380632
3872, 515.625000, 0.000000, 1354.289092
3873, 518.750000, 0.000000, 1337.314090
3874, 505.717410, 100.593447, 1354.289092
3875, 508.782364, 101.203105, 1337.314090
3876, 516.252077, 50.846392, 1354.380632
3877, 479.262507, 198.517031, 1354.380632
3878, 476.375384, 197.321145, 1354.289092
3879, 479.262507, 198.517031, 1337.314090
3880, 496.412799, 150.585176, 1354.380632
3881, 431.324861, 288.202058, 1354.380632
3882, 428.726519, 286.465901, 1354.289092
3883, 431.324861, 288.202058, 1337.314090
3884, 457.496656, 244.537057, 1354.380632
3885, 366.811643, 366.811643, 1354.380632
3886, 364.601934, 364.601934, 1354.289092
3887, 366.811643, 366.811643, 1337.314090
3888, 400.999173, 329.091516, 1354.380632
3889, 288.202058, 431.324861, 1354.380632
3890, 286.465901, 428.726519, 1354.289092
3891, 288.202058, 431.324861, 1337.314090
3892, 329.091516, 400.999173, 1354.380632
3893, 198.517031, 479.262507, 1354.380632
3894, 197.321145, 476.375384, 1354.289092
3895, 198.517031, 479.262507, 1337.314090
3896, 244.537057, 457.496656, 1354.380632
3897, 101.203105, 508.782364, 1354.380632
3898, 100.593447, 505.717410, 1354.289092
3899, 101.203105, 508.782364, 1337.314090
3900, 150.585176, 496.412799, 1354.380632
3901, 0.000000, 518.750000, 1354.380632
3902, 0.000000, 515.625000, 1354.289092
3903, 0.000000, 518.750000, 1337.314090
3904, 50.846392, 516.252077, 1354.380632
3905, 525.000000, 0.000000, 1354.563712
3906, 514.912272, 102.422419, 1354.563712
3907, 521.875000, 0.000000, 1354.472172
3908, 525.000000, 0.000000, 1337.494863
3909, 511.847318, 101.812762, 1354.472172
3910, 514.912272, 102.422419, 1337.494863
3911, 522.471982, 51.458999, 1354.563712
3912, 485.036755, 200.908802, 1354.563712
3913, 482.149631, 199.712916, 1354.472172
3914, 485.036755, 200.908802, 1337.494863
3915, 502.393676, 152.399456, 1354.563712
3916, 436.521546, 291.674372, 1354.563712
3917, 433.923204, 289.938215, 1354.472172
3918, 436.521546, 291.674372, 1337.494863
3919, 463.008664, 247.483287, 1354.563712
3920, 371.231060, 371.231060, 1354.563712
3921, 369.021351, 369.021351, 1354.472172
3922, 371.231060, 371.231060, 1337.494863
3923, 405.830488, 333.056474, 1354.563712
3924, 291.674372, 436.521546, 1354.563712
3925, 289.938215, 433.923204, 1354.472172
3926, 291.674372, 436.521546, 1337.494863
3927, 333.056474, 405.830488, 1354.563712
3928, 200.908802, 485.036755, 1354.563712
3929, 199.712916, 482.149631, 1354.472172
3930, 200.908802, 485.036755, 1337.494863
3931, 247.483287, 463.008664, 1354.563712
3932, 102.422419, 514.912272, 1354.563712
3933, 101.812762, 511.847318, 1354.472172
3934, 102.422419, 514.912272, 1337.494863
3935, 152.399456, 502.393676, 1354.563712
3936, 0.000000, 525.000000, 1354.563712
3937, 0.000000, 521.875000, 1354.472172
3938, 0.000000, 525.000000, 1337.494863
3939, 51.458999, 522.471982, 1354.563712
3940, 500.000000, 0.000000, 1385.780764
3941, 506.250000, 0.000000, 1385.968165
3942, 490.392640, 97.545161, 1385.780764
3943, 496.522548, 98.764476, 1385.968165
3944, 500.000000, 0.000000, 1370.174913
3945, 503.125000, 0.000000, 1385.874464
3946, 506.250000, 0.000000, 1370.360204
3947, 490.392640, 97.545161, 1370.174913
3948, 493.457594, 98.154818, 1385.874464
3949, 496.522548, 98.764476, 1370.360204
3950, 497.592363, 49.008570, 1385.780764
3951, 503.812268, 49.621177, 1385.968165
3952, 461.939766, 191.341716, 1385.780764
3953, 467.714013, 193.733488, 1385.968165
3954, 461.939766, 191.341716, 1370.174913
3955, 464.826890, 192.537602, 1385.874464
3956, 467.714013, 193.733488, 1370.360204
3957, 478.470168, 145.142339, 1385.780764
3958, 484.451045, 146.956618, 1385.968165
3959, 415.734806, 277.785117, 1385.780764
3960, 420.931491, 281.257430, 1385.968165
3961, 415.734806, 277.785117, 1370.174913
3962, 418.333149, 279.521273, 1385.874464
3963, 420.931491, 281.257430, 1370.360204
3964, 440.960632, 235.698368, 1385.780764
3965, 446.472640, 238.644598, 1385.968165
3966, 353.553391, 353.553391, 1385.780764
3967, 357.972808, 357.972808, 1385.968165
3968, 353.553391, 353.553391, 1370.174913
3969, 355.763099, 355.763099, 1385.874464
3970, 357.972808, 357.972808, 1370.360204
3971, 386.505227, 317.196642, 1385.780764
3972, 391.336542, 321.161600, 1385.968165
3973, 277.785117, 415.734806, 1385.780764
3974, 281.257430, 420.931491, 1385.968165
3975, 277.785117, 415.734806, 1370.174913
3976, 279.521273, 418.333149, 1385.874464
3977, 281.257430, 420.931491, 1370.360204
3978, 317.196642, 386.505227, 1385.780764
3979, 321.161600, 391.336542, 1385.968165
3980, 191.341716, 461.939766, 1385.780764
3981, 193.733488, 467.714013, 1385.968165
3982, 191.341716, 461.939766, 1370.174913
3983, 192.537602, 464.826890, 1385.874464
3984, 193.733488, 467.714013, 1370.360204
3985, 235.698368, 440.960632, 1385.780764
3986, 238.644598, 446.472640, 1385.968165
3987, 97.545161, 490.392640, 1385.780764
3988, 98.764476, 496.522548, 1385.968165
3989, 97.545161, 490.392640, 1370.174913
3990, 98.154818, 493.457594, 1385.874464
3991, 98.764476, 496.522548, 1370.360204
3992, 145.142339, 478.470168, 1385.780764
3993, 146.956618, 484.451045, 1385.968165
3994, 0.000000, 500.000000, 1385.780764
3995, 0.000000, 506.250000, 1385.968165
3996, 0.000000, 500.000000, 1370.174913
3997, 0.000000, 503.125000, 1385.874464
3998, 0.000000, 506.250000, 1370.360204
3999, 49.008570, 497.592363, 1385.780764
4000, 49.621177, 503.812268, 1385.968165
4001, 512.500000, 0.000000, 1386.155566
4002, 502.652456, 99.983790, 1386.155566
4003, 509.375000, 0.000000, 1386.061865
4004, 512.500000, 0.000000, 1370.545494
4005, 499.587502, 99.374133, 1386.061865
4006, 502.652456, 99.983790, 1370.545494
4007, 510.032172, 50.233784, 1386.155566
4008, 473.488260, 196.125259, 1386.155566
4009, 470.601137, 194.929373, 1386.061865
4010, 473.488260, 196.125259, 1370.545494
4011, 490.431922, 148.770897, 1386.155566
4012, 426.128176, 284.729744, 1386.155566
4013, 423.529834, 282.993587, 1386.061865
4014, 426.128176, 284.729744, 1370.545494
4015, 451.984648, 241.590828, 1386.155566
4016, 362.392225, 362.392225, 1386.155566
4017, 360.182517, 360.182517, 1386.061865
4018, 362.392225, 362.392225, 1370.545494
4019, 396.167857, 325.126558, 1386.155566
4020, 284.729744, 426.128176, 1386.155566
4021, 282.993587, 423.529834, 1386.061865
4022, 284.729744, 426.128176, 1370.545494
4023, 325.126558, 396.167857, 1386.155566
4024, 196.125259, 473.488260, 1386.155566
4025, 194.929373, 470.601137, 1386.061865
4026, 196.125259, 473.488260, 1370.545494
4027, 241.590828, 451.984648, 1386.155566
4028, 99.983790, 502.652456, 1386.155566
4029, 99.374133, 499.587502, 1386.061865
4030, 99.983790, 502.652456, 1370.545494
4031, 148.770897, 490.431922, 1386.155566
4032, 0.000000, 512.500000, 1386.155566
4033, 0.000000, 509.375000, 1386.061865
4034, 0.000000, 512.500000, 1370.545494
4035, 50.233784, 510.032172, 1386.155566
4036, 518.750000, 0.000000, 1386.342967
4037, 508.782364, 101.203105, 1386.342967
4038, 515.625000, 0.000000, 1386.249266
4039, 518.750000, 0.000000, 1370.730785
4040, 505.717410, 100.593447, 1386.249266
4041, 508.782364, 101.203105, 1370.730785
4042, 516.252077, 50.846392, 1386.342967
4043, 479.262507, 198.517031, 1386.342967
4044, 476.375384, 197.321145, 1386.249266
4045, 479.262507, 198.517031, 1370.730785
4046, 496.412799, 150.585176, 1386.342967
4047, 431.324861, 288.202058, 1386.342967
4048, 428.726519, 286.465901, 1386.249266
4049, 431.324861, 288.202058, 1370.730785
4050, 457.496656, 244.537057, 1386.342967
4051, 366.811643, 366.811643, 1386.342967
4052, 364.601934, 364.601934, 1386.249266
4053, 366.811643, 366.811643, 1370.730785
4054, 400.999173, 329.091516, 1386.342967
4055, 288.202058, 431.324861, 1386.342967
4056, 286.465901, 428.726519, 1386.249266
4057, 288.202058, 431.324861, 1370.730785
4058, 329.091516, 400.999173, 1386.342967
4059, 198.517031, 479.262507, 1386.342967
4060, 197.321145, 476.375384, 1386.249266
4061, 198.517031, 479.262507, 1370.730785
4062, 244.537057, 457.496656, 1386.342967
4063, 101.203105, 508.782364, 1386.342967
4064, 100.593447, 505.717410, 1386.249266
4065, 101.203105, 508.782364, 1370.730785
4066, 150.585176, 496.412799, 1386.342967
4067, 0.000000, 518.750000, 1386.342967
4068, 0.000000, 515.625000, 1386.249266
4069, 0.000000, 518.750000, 1370.730785
4070, 50.846392, 516.252077, 1386.342967
4071, 525.000000, 0.000000, 1386.530368
4072, 514.912272, 102.422419, 1386.530368
4073, 521.875000, 0.000000, 1386.436667
4074, 525.000000, 0.000000, 1370.916076
4075, 511.847318, 101.812762, 1386.436667
4076, 514.912272, 102.422419, 1370.916076
4077, 522.471982, 51.458999, 1386.530368
4078, 485.036755, 200.908802, 1386.530368
4079, 482.149631, 199.712916, 1386.436667
4080, 485.036755, 200.908802, 1370.916076
4081, 502.393676, 152.399456, 1386.530368
4082, 436.521546, 291.674372, 1386.530368
4083, 433.923204, 289.938215, 1386.436667
4084, 436.521546, 291.674372, 1370.916076
4085, 463.008664, 247.483287, 1386.530368
4086, 371.231060, 371.231060, 1386.530368
4087, 369.021351, 369.021351, 1386.436667
4088, 371.231060, 371.231060, 1370.916076
4089, 405.830488, 333.056474, 1386.530368
4090, 291.674372, 436.521546, 1386.530368
4091, 289.938215, 433.923204, 1386.436667
4092, 291.674372, 436.521546, 1370.916076
4093, 333.056474, 405.830488, 1386.530368
4094, 200.908802, 485.036755, 1386.530368
4095, 199.712916, 482.149631, 1386.436667
4096, 200.908802, 485.036755, 1370.916076
4097, 247.483287, 463.008664, 1386.530368
4098, 102.422419, 514.912272, 1386.530368
4099, 101.812762, 511.847318, 1386.436667
4100, 102.422419, 514.912272, 1370.916076
4101, 152.399456, 502.393676, 1386.530368
4102, 0.000000, 525.000000, 1386.530368
4103, 0.000000, 521.875000, 1386.436667
4104, 0.000000, 525.000000, 1370.916076
4105, 51.458999, 522.471982, 1386.530368
4106, 500.000000, 0.000000, 1414.680312
4107, 506.250000, 0.000000, 1414.871621
4108, 490.392640, 97.545161, 1414.680312
4109, 496.522548, 98.764476, 1414.871621
4110, 500.000000, 0.000000, 1400.624905
4111, 503.125000, 0.000000, 1414.775967
4112, 506.250000, 0.000000, 1400.814314
4113, 490.392640, 97.545161, 1400.624905
4114, 493.457594, 98.154818, 1414.775967
4115, 496.522548, 98.764476, 1400.814314
4116, 497.592363, 49.008570, 1414.680312
4117, 503.812268, 49.621177, 1414.871621
4118, 461.939766, 191.341716, 1414.680312
4119, 467.714013, 193.733488, 1414.871621
4120, 461.939766, 191.341716, 1400.624905
4121, 464.826890, 192.537602, 1414.775967
4122, 467.714013, 193.733488, 1400.814314
4123, 478.470168, 145.142339, 1414.680312
4124, 484.451045, 146.956618, 1414.871621
4125, 415.734806, 277.785117, 1414.680312
4126, 420.931491, 281.257430, 1414.871621
4127, 415.734806, 277.785117, 1400.624905
4128, 418.333149, 279.521273, 1414.775967
4129, 420.931491, 281.257430, 1400.814314
4130, 440.960632, 235.698368, 1414.680312
4131, 446.472640, 238.644598, 1414.871621
4132, 353.553391, 353.553391, 1414.680312
4133, 357.972808, 357.972808, 1414.871621
4134, 353.553391, 353.553391, 1400.624905
4135, 355.763099, 355.763099, 1414.775967
4136, 357.972808, 357.972808, 1400.814314
4137, 386.505227, 317.196642, 1414.680312
4138, 391.336542, 321.161600, 1414.871621
4139, 277.785117, 415.734806, 1414.680312
4140, 281.257430, 420.931491, 1414.871621
4141, 277.785117, 415.734806, 1400.624905
4142, 279.521273, 418.333149, 1414.775967
4143, 281.257430, 420.931491, 1400.814314
4144, 317.196642, 386.505227, 1414.680312
4145, 321.161600, 391.336542, 1414.871621
4146, 191.341716, 461.939766, 1414.680312
4147, 193.733488, 467.714013, 1414.871621
4148, 191.341716, 461.939766, 1400.624905
4149, 192.537602, 464.826890, 1414.775967
4150, 193.733488, 467.714013, 1400.814314
4151, 235.698368, 440.960632, 1414.680312
4152, 238.644598, 446.472640, 1414.871621
4153, 97.545161, 490.392640, 1414.680312
4154, 98.764476, 496.522548, 1414.871621
4155, 97.545161, 490.392640, 1400.624905
4156, 98.154818, 493.457594, 1414.775967
4157, 98.764476, 496.522548, 1400.814314
4158, 145.142339, 478.470168, 1414.680312
4159, 146.956618, 484.451045, 1414.871621
4160, 0.000000, 500.000000, 1414.680312
4161, 0.000000, 506.250000, 1414.871621
4162, 0.000000, 500.000000, 1400.624905
4163, 0.000000, 503.125000, 1414.775967
4164, 0.000000, 506.250000, 1400.814314
4165, 49.008570, 497.592363, 1414.680312
4166, 49.621177, 503.812268, 1414.871621
4167, 512.500000, 0.000000, 1415.062930
4168, 502.652456, 99.983790, 1415.062930
4169, 509.375000, 0.000000, 1414.967276
4170, 512.500000, 0.000000, 1401.003722
4171, 499.587502, 99.374133, 1414.967276
4172, 502.652456, 99.983790, 1401.003722
4173, 510.032172, 50.233784, 1415.062930
4174, 473.488260, 196.125259, 1415.062930
4175, 470.601137, 194.929373, 1414.967276
4176, 473.488260, 196.125259, 1401.003722
4177, 490.431922, 148.770897, 1415.062930
4178, 426.128176, 284.729744, 1415.062930
4179, 423.529834, 282.993587, 1414.967276
4180, 426.128176, 284.729744, 1401.003722
4181, 451.984648, 241.590828, 1415.062930
4182, 362.392225, 362.392225, 1415.062930
4183, 360.182517, 360.182517, 1414.967276
4184, 362.392225, 362.392225, 1401.003722
4185, 396.167857, 325.126558, 1415.062930
4186, 284.729744, 426.128176, 1415.062930
4187, 282.993587, 423.529834, 1414.967276
4188, 284.729744, 426.128176, 1401.003722
4189, 325.126558, 396.167857, 1415.062930
4190, 196.125259, 473.488260, 1415.062930
4191, 194.929373, 470.601137, 1414.967276
4192, 196.125259, 473.488260, 1401.003722
4193, 241.590828, 451.984648, 1415.062930
4194, 99.983790, 502.652456, 1415.062930
4195, 99.374133, 499.587502, 1414.967276
4196, 99.983790, 502.652456, 1401.003722
4197, 148.770897, 490.431922, 1415.062930
4198, 0.000000, 512.500000, 1415.062930
4199, 0.000000, 509.375000, 1414.967276
4200, 0.000000, 512.500000, 1401.003722
4201, 50.233784, 510.032172, 1415.062930
4202, 518.750000, 0.000000, 1415.254240
4203, 508.782364, 101.203105, 1415.254240
4204, 515.625000, 0.000000, 1415.158585
4205, 518.750000, 0.000000, 1401.193131
4206, 505.717410, 100.593447, 1415.158585
4207, 508.782364, 101.203105, 1401.193131
4208, 516.252077, 50.846392, 1415.254240
4209, 479.262507, 198.517031, 1415.254240
4210, 476.375384, 197.321145, 1415.158585
4211, 479.262507, 198.517031, 1401.193131
4212, 496.412799, 150.585176, 1415.254240
4213, 431.324861, 288.202058, 1415.254240
4214, 428.726519, 286.465901, 1415.158585
4215, 431.324861, 288.202058, 1401.193131
4216, 457.496656, 244.537057, 1415.254240
4217, 366.811643, 366.811643, 1415.254240
4218, 364.601934, 364.601934, 1415.158585
4219, 366.811643, 366.811643, 1401.193131
4220, 400.999173, 329.091516, 1415.254240
4221, 288.202058, 431.324861, 1415.254240
4222, 286.465901, 428.726519, 1415.158585
4223, 288.202058, 431.324861, 1401.193131
4224, 329.091516, 400.999173, 1415.254240
4225, 198.517031, 479.262507, 1415.254240
4226, 197.321145, 476.375384, 1415.158585
4227, 198.517031, 479.262507, 1401.193131
4228, 244.537057, 457.496656, 1415.254240
4229, 101.203105, 508.782364, 1415.254240
4230, 100.593447, 505.717410, 1415.158585
4231, 101.203105, 508.782364, 1401.193131
4232, 150.585176, 496.412799, 1415.254240
4233, 0.000000, 518.750000, 1415.254240
4234, 0.000000, 515.625000, 1415.158585
4235, 0.000000, 518.750000, 1401.193131
4236, 50.846392, 516.252077, 1415.254240
4237, 525.000000, 0.000000, 1415.445549
4238, 514.912272, 102.422419, 1415.445549
4239, 521.875000, 0.000000, 1415.349894
4240, 525.000000, 0.000000, 1401.382539
4241, 511.847318, 101.812762, 1415.349894
4242, 514.912272, 102.422419, 1401.382539
4243, 522.471982, 51.458999, 1415.445549
4244, 485.036755, 200.908802, 1415.445549
4245, 482.149631, 199.712916, 1415.349894
4246, 485.036755, 200.908802, 1401.382539
4247, 502.393676, 152.399456, 1415.445549
4248, 436.521546, 291.674372, 1415.445549
4249, 433.923204, 289.938215, 1415.349894
4250, 436.521546, 291.674372, 1401.382539
4251, 463.008664, 247.483287, 1415.445549
4252, 371.231060, 371.231060, 1415.445549
4253, 369.021351, 369.021351, 1415.349894
4254, 371.231060, 371.231060, 1401.382539
4255, 405.830488, 333.056474, 1415.445549
4256, 291.674372, 436.521546, 1415.445549
4257, 289.938215, 433.923204, 1415.349894
4258, 291.674372, 436.521546, 1401.382539
4259, 333.056474, 405.830488, 1415.445549
4260, 200.908802, 485.036755, 1415.445549
4261, 199.712916, 482.149631, 1415.349894
4262, 200.908802, 485.036755, 1401.382539
4263, 247.483287, 463.008664, 1415.445549
4264, 102.422419, 514.912272, 1415.445549
4265, 101.812762, 511.847318, 1415.349894
4266, 102.422419, 514.912272, 1401.382539
4267, 152.399456, 502.393676, 1415.445549
4268, 0.000000, 525.000000, 1415.445549
4269, 0.000000, 521.875000, 1415.349894
4270, 0.000000, 525.000000, 1401.382539
4271, 51.458999, 522.471982, 1415.445549
4272, 500.000000, 0.000000, 1440.297401
4273, 506.250000, 0.000000, 1440.492174
4274, 490.392640, 97.545161, 1440.297401
4275, 496.522548, 98.764476, 1440.492174
4276, 500.000000, 0.000000, 1427.916266
4277, 503.125000, 0.000000, 1440.394788
4278, 506.250000, 0.000000, 1428.109365
4279, 490.392640, 97.545161, 1427.916266
4280, 493.457594, 98.154818, 1440.394788
4281, 496.522548, 98.764476, 1428.109365
4282, 497.592363, 49.008570, 1440.297401
4283, 503.812268, 49.621177, 1440.492174
4284, 461.939766, 191.341716, 1440.297401
4285, 467.714013, 193.733488, 1440.492174
4286, 461.939766, 191.341716, 1427.916266
4287, 464.826890, 192.537602, 1440.394788
4288, 467.714013, 193.733488, 1428.109365
4289, 478.470168, 145.142339, 1440.297401
4290, 484.451045, 146.956618, 1440.492174
4291, 415.734806, 277.785117, 1440.297401
4292, 420.931491, 281.257430, 1440.492174
4293, 415.734806, 277.785117, 1427.916266
4294, 418.333149, 279.521273, 1440.394788
4295, 420.931491, 281.257430, 1428.109365
4296, 440.960632, 235.698368, 1440.297401
4297, 446.472640, 238.644598, 1440.492174
4298, 353.553391, 353.553391, 1440.297401
4299, 357.972808, 357.972808, 1440.492174
4300, 353.553391, 353.553391, 1427.916266
4301, 355.763099, 355.763099, 1440.394788
4302, 357.972808, 357.972808, 1428.109365
4303, 386.505227, 317.196642, 1440.297401
4304, 391.336542, 321.161600, 1440.492174
4305, 277.785117, 415.734806, 1440.297401
4306, 281.257430, 420.931491, 1440.492174
4307, 277.785117, 415.734806, 1427.916266
4308, 279.521273, 418.333149, 1440.394788
4309, 281.257430, 420.931491, 1428.109365
4310, 317.196642, 386.505227, 1440.297401
4311, 321.161600, 391.336542, 1440.492174
4312, 191.341716, 461.939766, 1440.297401
4313, 193.733488, 467.714013, 1440.492174
4314, 191.341716, 461.939766, 1427.916266
4315, 192.537602, 464.826890, 1440.394788
4316, 193.733488, 467.714013, 1428.109365
4317, 235.698368, 440.960632, 1440.297401
4318, 238.644598, 446.472640, 1440.492174
4319, 97.545161, 490.392640, 1440.297401
4320, 98.764476, 496.522548, 1440.492174
4321, 97.545161, 490.392640, 1427.916266
4322, 98.154818, 493.457594, 1440.394788
4323, 98.764476, 496.522548, 1428.109365
4324, 145.142339, 478.470168, 1440.297401
4325, 146.956618, 484.451045, 1440.492174
4326, 0.000000, 500.000000, 1440.297401
4327, 0.000000, 506.250000, 1440.492174
4328, 0.000000, 500.000000, 1427.916266
4329, 0.000000, 503.125000, 1440.394788
4330, 0.000000, 506.250000, 1428.109365
4331, 49.008570, 497.592363, 1440.297401
4332, 49.621177, 503.812268, 1440.492174
4333, 512.500000, 0.000000, 1440.686948
4334, 502.652456, 99.983790, 1440.686948
4335, 509.375000, 0.000000, 1440.589561
4336, 512.500000, 0.000000, 1428.302464
4337, 499.587502, 99.374133, 1440.589561
4338, 502.652456, 99.983790, 1428.302464
4339, 510.032172, 50.233784, 1440.686948
4340, 473.488260, 196.125259, 1440.686948
4341, 470.601137, 194.929373, 1440.589561
4342, 473.488260, 196.125259, 1428.302464
4343, 490.431922, 148.770897, 1440.686948
4344, 426.128176, 284.729744, 1440.686948
4345, 423.529834, 282.993587, 1440.589561
4346, 426.128176, 284.729744, 1428.302464
4347, 451.984648, 241.590828, 1440.686948
4348, 362.392225, 362.392225, 1440.686948
4349, 360.182517, 360.182517, 1440.589561
4350, 362.392225, 362.392225, 1428.302464
4351, 396.167857, 325.126558, 1440.686948
4352, 284.729744, 426.128176, 1440.686948
4353, 282.993587, 423.529834, 1440.589561
4354, 284.729744, 426.128176, 1428.302464
4355, 325.126558, 396.167857, 1440.686948
4356, 196.125259, 473.488260, 1440.686948
4357, 194.929373, 470.601137, 1440.589561
4358, 196.125259, 473.488260, 1428.302464
4359, 241.590828, 451.984648, 1440.686948
4360, 99.983790, 502.652456, 1440.686948
4361, 99.374133, 499.587502, 1440.589561
4362, 99.983790, 502.652456, 1428.302464
4363, 148.770897, 490.431922, 1440.686948
4364, 0.000000, 512.500000, 1440.686948
4365, 0.000000, 509.375000, 1440.589561
4366, 0.000000, 512.500000, 1428.302464
4367, 50.233784, 510.032172, 1440.686948
4368, 518.750000, 0.000000, 1440.881721
4369, 508.782364, 101.203105, 1440.881721
4370, 515.625000, 0.000000, 1440.784334
4371, 518.750000, 0.000000, 1428.495564
4372, 505.717410, 100.593447, 1440.784334
4373, 508.782364, 101.203105, 1428.495564
4374, 516.252077, 50.846392, 1440.881721
4375, 479.262507, 198.517031, 1440.881721
4376, 476.375384, 197.321145, 1440.784334
4377, 479.262507, 198.517031, 1428.495564
4378, 496.412799, 150.585176, 1440.881721
4379, 431.324861, 288.202058, 1440.881721
4380, 428.726519, 286.465901, 1440.784334
4381, 431.324861, 288.202058, 1428.495564
4382, 457.496656, 244.537057, 1440.881721
4383, 366.811643, 366.811643, 1440.881721
4384, 364.601934, 364.601934, 1440.784334
4385, 366.811643, 366.811643, 1428.495564
4386, 400.999173, 329.091516, 1440.881721
4387, 288.202058, 431.324861, 1440.881721
4388, 286.465901, 428.726519, 1440.784334
4389, 288.202058, 431.324861, 1428.495564
4390, 329.091516, 400.999173, 1440.881721
4391, 198.517031, 479.262507, 1440.881721
4392, 197.321145, 476.375384, 1440.784334
4393, 198.517031, 479.262507, 1428.495564
4394, 244.537057, 457.496656, 1440.881721
4395, 101.203105, 508.782364, 1440.881721
4396, 100.593447, 505.717410, 1440.784334
4397, 101.203105, 508.782364, 1428.495564
4398, 150.585176, 496.412799, 1440.881721
4399, 0.000000, 518.750000, 1440.881721
4400, 0.000000, 515.625000, 1440.784334
4401, 0.000000, 518.750000, 1428.495564
4402, 50.846392, 516.252077, 1440.881721
4403, 525.000000, 0.000000, 1441.076495
4404, 514.912272, 102.422419, 1441.076495
4405, 521.875000, 0.000000, 1440.979108
4406, 525.000000, 0.000000, 1428.688663
4407, 511.847318, 101.812762, 1440.979108
4408, 514.912272, 102.422419, 1428.688663
4409, 522.471982, 51.458999, 1441.076495
4410, 485.036755, 200.908802, 1441.076495
4411, 482.149631, 199.712916, 1440.979108
4412, 485.036755, 200.908802, 1428.688663
4413, 502.393676, 152.399456, 1441.076495
4414, 436.521546, 291.674372, 1441.076495
4415, 433.923204, 289.938215, 1440.979108
4416, 436.521546, 291.674372, 1428.688663
4417, 463.008664, 247.483287, 1441.076495
4418, 371.231060, 371.231060, 1441.076495
4419, 369.021351, 369.021351, 1440.979108
4420, 371.231060, 371.231060, 1428.688663
4421, 405.830488, 333.056474, 1441.076495
4422, 291.674372, 436.521546, 1441.076495
4423, 289.938215, 433.923204, 1440.979108
4424, 291.674372, 436.521546, 1428.688663
4425, 333.056474, 405.830488, 1441.076495
4426, 200.908802, 485.036755, 1441.076495
4427, 199.712916, 482.149631, 1440.979108
4428, 200.908802, 485.036755, 1428.688663
4429, 247.483287, 463.008664, 1441.076495
4430, 102.422419, 514.912272, 1441.076495
4431, 101.812762, 511.847318, 1440.979108
4432, 102.422419, 514.912272, 1428.688663
4433, 152.399456, 502.393676, 1441.076495
4434, 0.000000, 525.000000, 1441.076495
4435, 0.000000, 521.875000, 1440.979108
4436, 0.000000, 525.000000, 1428.688663
4437, 51.458999, 522.471982, 1441.076495
4438, 500.000000, 0.000000, 1462.321704
4439, 506.250000, 0.000000, 1462.519455
4440, 490.392640, 97.545161, 1462.321704
4441, 496.522548, 98.764476, 1462.519455
4442, 500.000000, 0.000000, 1451.782341
4443, 503.125000, 0.000000, 1462.420579
4444, 506.250000, 0.000000, 1451.978667
4445, 490.392640, 97.545161, 1451.782341
4446, 493.457594, 98.154818, 1462.420579
4447, 496.522548, 98.764476, 1451.978667
4448, 497.592363, 49.008570, 1462.321704
4449, 503.812268, 49.621177, 1462.519455
4450, 461.939766, 191.341716, 1462.321704
4451, 467.714013, 193.733488, 1462.519455
4452, 461.939766, 191.341716, 1451.782341
4453, 464.826890, 192.537602, 1462.420579
4454, 467.714013, 193.733488, 1451.978667
4455, 478.470168, 145.142339, 1462.321704
4456, 484.451045, 146.956618, 1462.519455
4457, 415.734806, 277.785117, 1462.321704
4458, 420.931491, 281.257430, 1462.519455
4459, 415.734806, 277.785117, 1451.782341
4460, 418.333149, 279.521273, 1462.420579
4461, 420.931491, 281.257430, 1451.978667
4462, 440.960632, 235.698368, 1462.321704
4463, 446.472640, 238.644598, 1462.519455
4464, 353.553391, 353.553391, 1462.321704
4465, 357.972808, 357.972808, 1462.519455
4466, 353.553391, 353.553391, 1451.782341
4467, 355.763099, 355.763099, 1462.420579
4468, 357.972808, 357.972808, 1451.978667
4469, 386.505227, 317.196642, 1462.321704
4470, 391.336542, 321.161600, 1462.519455
4471, 277.785117, 415.734806, 1462.321704
4472, 281.257430, 420.931491, 1462.519455
4473, 277.785117, 415.734806, 1451.782341
4474, 279.521273, 418.333149, 1462.420579
4475, 281.257430, 420.931491, 1451.978667
4476, 317.196642, 386.505227, 1462.321704
4477, 321.161600, 391.336542, 1462.519455
4478, 191.341716, 461.939766, 1462.321704
4479, 193.733488, 467.714013, 1462.519455
4480, 191.341716, 461.939766, 1451.782341
4481, 192.537602, 464.826890, 1462.420579
4482, 193.733488, 467.714013, 1451.978667
4483, 235.698368, 440.960632, 1462.321704
4484, 238.644598, 446.472640, 1462.519455
4485, 97.545161, 490.392640, 1462.321704
4486, 98.764476, 496.522548, 1462.519455
4487, 97.545161, 490.392640, 1451.782341
4488, 98.154818, 493.457594, 1462.420579
4489, 98.764476, 496.522548, 1451.978667
4490, 145.142339, 478.470168, 1462.321704
4491, 146.956618, 484.451045, 1462.519455
4492, 0.000000, 500.000000, 1462.321704
4493, 0.000000, 506.250000, 1462.519455
4494, 0.000000, 500.000000, 1451.782341
4495, 0.000000, 503.125000, 1462.420579
4496, 0.000000, 506.250000, 1451.978667
4497, 49.008570, 497.592363, 1462.321704
4498, 49.621177, 503.812268, 1462.519455
4499, 512.500000, 0.000000, 1462.717207
4500, 502.652456, 99.983790, 1462.717207
4501, 509.375000, 0.000000, 1462.618331
4502, 512.500000, 0.000000, 1452.174994
4503, 499.587502, 99.374133, 1462.618331
4504, 502.652456, 99.983790, 1452.174994
4505, 510.032172, 50.233784, 1462.717207
4506, 473.488260, 196.125259, 1462.717207
4507, 470.601137, 194.929373, 1462.618331
4508, 473.488260, 196.125259, 1452.174994
4509, 490.431922, 148.770897, 1462.717207
4510, 426.128176, 284.729744, 1462.717207
4511, 423.529834, 282.993587, 1462.618331
4512, 426.128176, 284.729744, 1452.174994
4513, 451.984648, 241.590828, 1462.717207
4514, 362.392225, 362.392225, 1462.717207
4515, 360.182517, 360.182517, 1462.618331
4516, 362.392225, 362.392225, 1452.174994
4517, 396.167857, 325.126558, 1462.717207
4518, 284.729744, 426.128176, 1462.717207
4519, 282.993587, 423.529834, 1462.618331
4520, 284.729744, 426.128176, 1452.174994
4521, 325.126558, 396.167857, 1462.717207
4522, 196.125259, 473.488260, 1462.717207
4523, 194.929373, 470.601137, 1462.618331
4524, 196.125259, 473.488260, 1452.174994
4525, 241.590828, 451.984648, 1462.717207
4526, 99.983790, 502.652456, 1462.717207
4527, 99.374133, 499.587502, 1462.618331
4528, 99.983790, 502.652456, 1452.174994
4529, 148.770897, 490.431922, 1462.717207
4530, 0.000000, 512.500000, 1462.717207
4531, 0.000000, 509.375000, 1462.618331
4532, 0.000000, 512.500000, 1452.174994
4533, 50.233784, 510.032172, 1462.717207
4534, 518.750000, 0.000000, 1462.914959
4535, 508.782364, 101.203105, 1462.914959
4536, 515.625000, 0.000000, 1462.816083
4537, 518.750000, 0.000000, 1452.371320
4538, 505.717410, 100.593447, 1462.816083
4539, 508.782364, 101.203105, 1452.371320
4540, 516.252077, 50.846392, 1462.914959
4541, 479.262507, 198.517031, 1462.914959
4542, 476.375384, 197.321145, 1462.816083
4543, 479.262507, 198.517031, 1452.371320
4544, 496.412799, 150.585176, 1462.914959
4545, 431.324861, 288.202058, 1462.914959
4546, 428.726519, 286.465901, 1462.816083
4547, 431.324861, 288.202058, 1452.371320
4548, 457.496656, 244.537057, 1462.914959
4549, 366.811643, 366.811643, 1462.914959
4550, 364.601934, 364.601934, 1462.816083
4551, 366.811643, 366.811643, 1452.371320
4552, 400.999173, 329.091516, 1462.914959
4553, 288.202058, 431.324861, 1462.914959
4554, 286.465901, 428.726519, 1462.816083
4555, 288.202058, 431.324861, 1452.371320
4556, 329.091516, 400.999173, 1462.914959
4557, 198.517031, 479.262507, 1462.914959
4558, 197.321145, 476.375384, 1462.816083
4559, 198.517031, 479.262507, 1452.371320
4560, 244.537057, 457.496656, 1462.914959
4561, 101.203105, 508.782364, 1462.914959
4562, 100.593447, 505.717410, 1462.816083
4563, 101.203105, 508.782364, 1452.371320
4564, 150.585176, 496.412799, 1462.914959
4565, 0.000000, 518.750000, 1462.914959
4566, 0.000000, 515.625000, 1462.816083
4567, 0.000000, 518.750000, 1452.371320
4568, 50.846392, 516.252077, 1462.914959
4569, 525.000000, 0.000000, 1463.112711
4570, 514.912272, 102.422419, 1463.112711
4571, 521.875000, 0.000000, 1463.013835
4572, 525.000000, 0.000000, 1452.567647
4573, 511.847318, 101.812762, 1463.013835
4574, 514.912272, 102.422419, 1452.567647
4575, 522.471982, 51.458999, 1463.112711
4576, 485.036755, 200.908802, 1463.112711
4577, 482.149631, 199.712916, 1463.013835
4578, 485.036755, 200.908802, 1452.567647
4579, 502.393676, 152.399456, 1463.112711
4580, 436.521546, 291.674372, 1463.112711
4581, 433.923204, 289.938215, 1463.013835
4582, 436.521546, 291.674372, 1452.567647
4583, 463.008664, 247.483287, 1463.112711
4584, 371.231060, 371.231060, 1463.112711
4585, 369.021351, 369.021351, 1463.013835
4586, 371.231060, 371.231060, 1452.567647
4587, 405.830488, 333.056474, 1463.112711
4588, 291.674372, 436.521546, 1463.112711
4589, 289.938215, 433.923204, 1463.013835
4590, 291.674372, 436.521546, 1452.567647
4591, 333.056474, 405.830488, 1463.112711
4592, 200.908802, 485.036755, 1463.112711
4593, 199.712916, 482.149631, 1463.013835
4594, 200.908802, 485.036755, 1452.567647
4595, 247.483287, 463.008664, 1463.112711
4596, 102.422419, 514.912272, 1463.112711
4597, 101.812762, 511.847318, 1463.013835
4598, 102.422419, 514.912272, 1452.567647
4599, 152.399456, 502.393676, 1463.112711
4600, 0.000000, 525.000000, 1463.112711
4601, 0.000000, 521.875000, 1463.013835
4602, 0.000000, 525.000000, 1452.567647
4603, 51.458999, 522.471982, 1463.112711
4604, 500.000000, 0.000000, 1480.305487
4605, 506.250000, 0.000000, 1480.505671
4606, 490.392640, 97.545161, 1480.305487
4607, 496.522548, 98.764476, 1480.505671
4608, 500.000000, 0.000000, 1471.854999
4609, 503.125000, 0.000000, 1480.405579
4610, 506.250000, 0.000000, 1472.054040
4611, 490.392640, 97.545161, 1471.854999
4612, 493.457594, 98.154818, 1480.405579
4613, 496.522548, 98.764476, 1472.054040
4614, 497.592363, 49.008570, 1480.305487
4615, 503.812268, 49.621177, 1480.505671
4616, 461.939766, 191.341716, 1480.305487
4617, 467.714013, 193.733488, 1480.505671
4618, 461.939766, 191.341716, 1471.854999
4619, 464.826890, 192.537602, 1480.405579
4620, 467.714013, 193.733488, 1472.054040
4621, 478.470168, 145.142339, 1480.305487
4622, 484.451045, 146.956618, 1480.505671
4623, 415.734806, 277.785117, 1480.305487
4624, 420.931491, 281.257430, 1480.505671
4625, 415.734806, 277.785117, 1471.854999
4626, 418.333149, 279.521273, 1480.405579
4627, 420.931491, 281.257430, 1472.054040
4628, 440.960632, 235.698368, 1480.305487
4629, 446.472640, 238.644598, 1480.505671
4630, 353.553391, 353.553391, 1480.305487
4631, 357.972808, 357.972808, 1480.505671
4632, 353.553391, 353.553391, 1471.854999
4633, 355.763099, 355.763099, 1480.405579
4634, 357.972808, 357.972808, 1472.054040
4635, 386.505227, 317.196642, 1480.305487
4636, 391.336542, 321.161600, 1480.505671
4637, 277.785117, 415.734806, 1480.305487
4638, 281.257430, 420.931491, 1480.505671
4639, 277.785117, 415.734806, 1471.854999
4640, 279.521273, 418.333149, 1480.405579
4641, 281.257430, 420.931491, 1472.054040
4642, 317.196642, 386.505227, 1480.305487
4643, 321.161600, 391.336542, 1480.505671
4644, 191.341716, 461.939766, 1480.305487
4645, 193.733488, 467.714013, 1480.505671
4646, 191.341716, 461.939766, 1471.854999
4647, 192.537602, 464.826890, 1480.405579
4648, 193.733488, 467.714013, 1472.054040
4649, 235.698368, 440.960632, 1480.305487
4650, 238.644598, 446.472640, 1480.505671
4651, 97.545161, 490.392640, 1480.305487
4652, 98.764476, 496.522548, 1480.505671
4653, 97.545161, 490.392640, 1471.854999
4654, 98.154818, 493.457594, 1480.405579
4655, 98.764476, 496.522548, 1472.054040
4656, 145.142339, 478.470168, 1480.305487
4657, 146.956618, 484.451045, 1480.505671
4658, 0.000000, 500.000000, 1480.305487
4659, 0.000000, 506.250000, 1480.505671
4660, 0.000000, 500.000000, 1471.854999
4661, 0.000000, 503.125000, 1480.405579
4662, 0.000000, 506.250000, 1472.054040
4663, 49.008570, 497.592363, 1480.305487
4664, 49.621177, 503.812268, 1480.505671
4665, 512.500000, 0.000000, 1480.705855
4666, 502.652456, 99.983790, 1480.705855
4667, 509.375000, 0.000000, 1480.605763
4668, 512.500000, 0.000000, 1472.253081
4669, 499.587502, 99.374133, 1480.605763
4670, 502.652456, 99.983790, 1472.253081
4671, 510.032172, 50.233784, 1480.705855
4672, 473.488260, 196.125259, 1480.705855
4673, 470.601137, 194.929373, 1480.605763
4674, 473.488260, 196.125259, 1472.253081
4675, 490.431922, 148.770897, 1480.705855
4676, 426.128176, 284.729744, 1480.705855
4677, 423.529834, 282.993587, 1480.605763
4678, 426.128176, 284.729744, 1472.253081
4679, 451.984648, 241.590828, 1480.705855
4680, 362.392225, 362.392225, 1480.705855
4681, 360.182517, 360.182517, 1480.605763
4682, 362.392225, 362.392225, 1472.253081
4683, 396.167857, 325.126558, 1480.705855
4684, 284.729744, 426.128176, 1480.705855
4685, 282.993587, 423.529834, 1480.605763
4686, 284.729744, 426.128176, 1472.253081
4687, 325.126558, 396.167857, 1480.705855
4688, 196.125259, 473.488260, 1480.705855
4689, 194.929373, 470.601137, 1480.605763
4690, 196.125259, 473.488260, 1472.253081
4691, 241.590828, 451.984648, 1480.705855
4692, 99.983790, 502.652456, 1480.705855
4693, 99.374133, 499.587502, 1480.605763
4694, 99.983790, 502.652456, 1472.253081
4695, 148.770897, 490.431922, 1480.705855
4696, 0.000000, 512.500000, 1480.705855
4697, 0.000000, 509.375000, 1480.605763
4698, 0.000000, 512.500000, 1472.253081
4699, 50.233784, 510.032172, 1480.705855
4700, 518.750000, 0.000000, 1480.906038
4701, 508.782364, 101.203105, 1480.906038
4702, 515.625000, 0.000000, 1480.805946
4703, 518.750000, 0.000000, 1472.452122
4704, 505.717410, 100.593447, 1480.805946
4705, 508.782364, 101.203105, 1472.452122
4706, 516.252077, 50.846392, 1480.906038
4707, 479.262507, 198.517031, 1480.906038
4708, 476.375384, 197.321145, 1480.805946
4709, 479.262507, 198.517031, 1472.452122
4710, 496.412799, 150.585176, 1480.906038
4711, 431.324861, 288.202058, 1480.906038
4712, 428.726519, 286.465901, 1480.805946
4713, 431.324861, 288.202058, 1472.452122
4714, 457.496656, 244.537057, 1480.906038
4715, 366.811643, 366.811643, 1480.906038
4716, 364.601934, 364.601934, 1480.805946
4717, 366.811643, 366.811643, 1472.452122
4718, 400.999173, 329.091516, 1480.906038
4719, 288.202058, 431.324861, 1480.906038
4720, 286.465901, 428.726519, 1480.805946
4721, 288.202058, 431.324861, 1472.452122
4722, 329.091516, 400.999173, 1480.906038
4723, 198.517031, 479.262507, 1480.906038
4724, 197.321145, 476.375384, 1480.805946
4725, 198.517031, 479.262507, 1472.452122
4726, 244.537057, 457.496656, 1480.906038
4727, 101.203105, 508.782364, 1480.906038
4728, 100.593447, 505.717410, 1480.805946
4729, 101.203105, 508.782364, 1472.452122
4730, 150.585176, 496.412799, 1480.906038
4731, 0.000000, 518.750000, 1480.906038
4732, 0.000000, 515.625000, 1480.805946
4733, 0.000000, 518.750000, 1472.452122
4734, 50.846392, 516.252077, 1480.906038
4735, 525.000000, 0.000000, 1481.106222
4736, 514.912272, 102.422419, 1481.106222
4737, 521.875000, 0.000000, 1481.006130
4738, 525.000000, 0.000000, 1472.651163
4739, 511.847318, 101.812762, 1481.006130
4740, 514.912272, 102.422419, 1472.651163
4741, 522.471982, 51.458999, 1481.106222
4742, 485.036755, 200.908802, 1481.106222
4743, 482.149631, 199.712916, 1481.006130
4744, 485.036755, 200.908802, 1472.651163
4745, 502.393676, 152.399456, 1481.106222
4746, 436.521546, 291.674372, 1481.106222
4747, 433.923204, 289.938215, 1481.006130
4748, 436.521546, 291.674372, 1472.651163
4749, 463.008664, 247.483287, 1481.106222
4750, 371.231060, 371.231060, 1481.106222
4751, 369.021351, 369.021351, 1481.006130
4752, 371.231060, 371.231060, 1472.651163
4753, 405.830488, 333.056474, 1481.106222
4754, 291.674372, 436.521546, 1481.106222
4755, 289.938215, 433.923204, 1481.006130
4756, 291.674372, 436.521546, 1472.651163
4757, 333.056474, 405.830488, 1481.106222
4758, 200.908802, 485.036755, 1481.106222
4759, 199.712916, 482.149631, 1481.006130
4760, 200.908802, 485.036755, 1472.651163
4761, 247.483287, 463.008664, 1481.106222
4762, 102.422419, 514.912272, 1481.106222
4763, 101.812762, 511.847318, 1481.006130
4764, 102.422419, 514.912272, 1472.651163
4765, 152.399456, 502.393676, 1481.106222
4766, 0.000000, 525.000000, 1481.106222
4767, 0.000000, 521.875000, 1481.006130
4768, 0.000000, 525.000000, 1472.651163
4769, 51.458999, 522.471982, 1481.106222
4770, 500.000000, 0.000000, 1493.503234
4771, 505.513892, 0.000000, 1493.585748
4772, 490.392640, 97.545161, 1493.503234
4773, 495.800585, 98.620868, 1493.585748
4774, 500.000000, 0.000000, 1487.570797
4775, 502.756946, 0.000000, 1493.544491
4776, 505.983146, 0.000000, 1487.728659
4777, 490.392640, 97.545161, 1487.570797
4778, 493.096612, 98.083015, 1493.544491
4779, 496.260822, 98.712415, 1487.728659
4780, 497.592363, 49.008570, 1493.503234
4781, 503.079705, 49.549026, 1493.585748
4782, 461.939766, 191.341716, 1493.503234
4783, 467.033939, 193.451791, 1493.585748
4784, 461.939766, 191.341716, 1487.570797
4785, 464.486852, 192.396754, 1493.544491
4786, 467.467473, 193.631367, 1487.728659
4787, 478.470168, 145.142339, 1493.503234
4788, 483.746634, 146.742937, 1493.585748
4789, 415.734806, 277.785117, 1493.503234
4790, 420.319440, 280.848471, 1493.585748
4791, 415.734806, 277.785117, 1487.570797
4792, 418.027123, 279.316794, 1493.544491
4793, 420.709610, 281.109174, 1487.728659
4794, 440.960632, 235.698368, 1493.503234
4795, 445.823451, 238.297599, 1493.585748
4796, 353.553391, 353.553391, 1493.503234
4797, 357.452301, 357.452301, 1493.585748
4798, 353.553391, 353.553391, 1487.570797
4799, 355.502846, 355.502846, 1493.544491
4800, 357.784114, 357.784114, 1487.728659
4801, 386.505227, 317.196642, 1493.503234
4802, 390.767523, 320.694618, 1493.585748
4803, 277.785117, 415.734806, 1493.503234
4804, 280.848471, 420.319440, 1493.585748
4805, 277.785117, 415.734806, 1487.570797
4806, 279.316794, 418.027123, 1493.544491
4807, 281.109174, 420.709610, 1487.728659
4808, 317.196642, 386.505227, 1493.503234
4809, 320.694618, 390.767523, 1493.585748
4810, 191.341716, 461.939766, 1493.503234
4811, 193.451791, 467.033939, 1493.585748
4812, 191.341716, 461.939766, 1487.570797
4813, 192.396754, 464.486852, 1493.544491
4814, 193.631367, 467.467473, 1487.728659
4815, 235.698368, 440.960632, 1493.503234
4816, 238.297599, 445.823451, 1493.585748
4817, 97.545161, 490.392640, 1493.503234
4818, 98.620868, 495.800585, 1493.585748
4819, 97.545161, 490.392640, 1487.570797
4820, 98.083015, 493.096612, 1493.544491
4821, 98.712415, 496.260822, 1487.728659
4822, 145.142339, 478.470168, 1493.503234
4823, 146.742937, 483.746634, 1493.585748
4824, 0.000000, 500.000000, 1493.503234
4825, 0.000000, 505.513892, 1493.585748
4826, 0.000000, 500.000000, 1487.570797
4827, 0.000000, 502.756946, 1493.544491
4828, 0.000000, 505.983146, 1487.728659
4829, 49.008570, 497.592363, 1493.503234
4830, 49.549026, 503.079705, 1493.585748
4831, 511.027785, 0.000000, 1493.668263
4832, 501.208529, 99.696575, 1493.668263
4833, 508.270838, 0.000000, 1493.627006
4834, 511.966293, 0.000000, 1487.886521
4835, 498.504557, 99.158722, 1493.627006
4836, 502.129004, 99.879669, 1487.886521
4837, 508.567046, 50.089482, 1493.668263
4838, 472.128111, 195.561867, 1493.668263
4839, 469.581025, 194.506829, 1493.627006
4840, 472.995179, 195.921018, 1487.886521
4841, 489.023100, 148.343536, 1493.668263
4842, 424.904074, 283.911825, 1493.668263
4843, 422.611757, 282.380148, 1493.627006
4844, 425.684415, 284.433232, 1487.886521
4845, 450.686270, 240.896830, 1493.668263
4846, 361.351212, 361.351212, 1493.668263
4847, 359.401757, 359.401757, 1493.627006
4848, 362.014837, 362.014837, 1487.886521
4849, 395.029819, 324.192595, 1493.668263
4850, 283.911825, 424.904074, 1493.668263
4851, 282.380148, 422.611757, 1493.627006
4852, 284.433232, 425.684415, 1487.886521
4853, 324.192595, 395.029819, 1493.668263
4854, 195.561867, 472.128111, 1493.668263
4855, 194.506829, 469.581025, 1493.627006
4856, 195.921018, 472.995179, 1487.886521
4857, 240.896830, 450.686270, 1493.668263
4858, 99.696575, 501.208529, 1493.668263
4859, 99.158722, 498.504557, 1493.627006
4860, 99.879669, 502.129004, 1487.886521
4861, 148.343536, 489.023100, 1493.668263
4862, 0.000000, 511.027785, 1493.668263
4863, 0.000000, 508.270838, 1493.627006
4864, 0.000000, 511.966293, 1487.886521
4865, 50.089482, 508.567046, 1493.668263
4866, 516.541677, 0.000000, 1493.750778
4867, 506.616473, 100.772282, 1493.750778
4868, 513.784731, 0.000000, 1493.709520
4869, 517.949439, 0.000000, 1488.044383
4870, 503.912501, 100.234429, 1493.709520
4871, 507.997186, 101.046923, 1488.044383
4872, 514.054388, 50.629938, 1493.750778
4873, 477.222283, 197.671942, 1493.750778
4874, 474.675197, 196.616904, 1493.709520
4875, 478.522885, 198.210669, 1488.044383
4876, 494.299566, 149.944134, 1493.750778
4877, 429.488708, 286.975180, 1493.750778
4878, 427.196391, 285.443503, 1493.709520
4879, 430.659219, 287.757290, 1488.044383
4880, 455.549089, 243.496061, 1493.750778
4881, 365.250123, 365.250123, 1493.750778
4882, 363.300667, 363.300667, 1493.709520
4883, 366.245560, 366.245560, 1488.044383
4884, 399.292116, 327.690571, 1493.750778
4885, 286.975180, 429.488708, 1493.750778
4886, 285.443503, 427.196391, 1493.709520
4887, 287.757290, 430.659219, 1488.044383
4888, 327.690571, 399.292116, 1493.750778
4889, 197.671942, 477.222283, 1493.750778
4890, 196.616904, 474.675197, 1493.709520
4891, 198.210669, 478.522885, 1488.044383
4892, 243.496061, 455.549089, 1493.750778
4893, 100.772282, 506.616473, 1493.750778
4894, 100.234429, 503.912501, 1493.709520
4895, 101.046923, 507.997186, 1488.044383
4896, 149.944134, 494.299566, 1493.750778
4897, 0.000000, 516.541677, 1493.750778
4898, 0.000000, 513.784731, 1493.709520
4899, 0.000000, 517.949439, 1488.044383
4900, 50.629938, 514.054388, 1493.750778
4901, 522.055569, 0.000000, 1493.833292
4902, 512.024418, 101.847989, 1493.833292
4903, 519.298623, 0.000000, 1493.792035
4904, 523.932585, 0.000000, 1488.202245
4905, 509.320446, 101.310136, 1493.792035
4906, 513.865367, 102.214177, 1488.202245
4907, 519.541729, 51.170394, 1493.833292
4908, 482.316455, 199.782017, 1493.833292
4909, 479.769369, 198.726980, 1493.792035
4910, 484.050592, 200.500320, 1488.202245
4911, 499.576032, 151.544732, 1493.833292
4912, 434.073342, 290.038534, 1493.833292
4913, 431.781025, 288.506857, 1493.792035
4914, 435.634023, 291.081348, 1488.202245
4915, 460.411908, 246.095292, 1493.833292
4916, 369.149033, 369.149033, 1493.833292
4917, 367.199578, 367.199578, 1493.792035
4918, 370.476284, 370.476284, 1488.202245
4919, 403.554412, 331.188547, 1493.833292
4920, 290.038534, 434.073342, 1493.833292
4921, 288.506857, 431.781025, 1493.792035
4922, 291.081348, 435.634023, 1488.202245
4923, 331.188547, 403.554412, 1493.833292
4924, 199.782017, 482.316455, 1493.833292
4925, 198.726980, 479.769369, 1493.792035
4926, 200.500320, 484.050592, 1488.202245
4927, 246.095292, 460.411908, 1493.833292
4928, 101.847989, 512.024418, 1493.833292
4929, 101.310136, 509.320446, 1493.792035
4930, 102.214177, 513.865367, 1488.202245
4931, 151.544732, 499.576032, 1493.833292
4932, 0.000000, 522.055569, 1493.833292
4933, 0.000000, 519.298623, 1493.792035
4934, 0.000000, 523.932585, 1488.202245
4935, 51.170394, 519.541729, 1493.833292
4936, 500.000000, 0.000000, 1500.000000
4937, 505.000000, 0.000000, 1500.000000
4938, 490.392640, 97.545161, 1500.000000
4939, 495.296567, 98.520613, 1500.000000
4940, 500.000000, 0.000000, 1497.856866
4941, 502.500000, 0.000000, 1500.000000
4942, 505.169521, 0.000000, 1497.884086
4943, 490.392640, 97.545161, 1497.856866
4944, 492.844603, 98.032887, 1500.000000
4945, 495.462831, 98.553685, 1497.884086
4946, 497.592363, 49.008570, 1500.000000
4947, 502.568287, 49.498656, 1500.000000
4948, 461.939766, 191.341716, 1500.000000
4949, 466.559164, 193.255133, 1500.000000
4950, 461.939766, 191.341716, 1497.856866
4951, 464.249465, 192.298425, 1500.000000
4952, 466.715781, 193.320006, 1497.884086
4953, 478.470168, 145.142339, 1500.000000
4954, 483.254870, 146.593762, 1500.000000
4955, 415.734806, 277.785117, 1500.000000
4956, 419.892154, 280.562968, 1500.000000
4957, 415.734806, 277.785117, 1497.856866
4958, 417.813480, 279.174042, 1500.000000
4959, 420.033106, 280.657149, 1497.884086
4960, 440.960632, 235.698368, 1500.000000
4961, 445.370238, 238.055352, 1500.000000
4962, 353.553391, 353.553391, 1500.000000
4963, 357.088924, 357.088924, 1500.000000
4964, 353.553391, 353.553391, 1497.856866
4965, 355.321158, 355.321158, 1500.000000
4966, 357.208794, 357.208794, 1497.884086
4967, 386.505227, 317.196642, 1500.000000
4968, 390.370279, 320.368609, 1500.000000
4969, 277.785117, 415.734806, 1500.000000
4970, 280.562968, 419.892154, 1500.000000
4971, 277.785117, 415.734806, 1497.856866
4972, 279.174042, 417.813480, 1500.000000
4973, 280.657149, 420.033106, 1497.884086
4974, 317.196642, 386.505227, 1500.000000
4975, 320.368609, 390.370279, 1500.000000
4976, 191.341716, 461.939766, 1500.000000
4977, 193.255133, 466.559164, 1500.000000
4978, 191.341716, 461.939766, 1497.856866
4979, 192.298425, 464.249465, 1500.000000
4980, 193.320006, 466.715781, 1497.884086
4981, 235.698368, 440.960632, 1500.000000
4982, 238.055352, 445.370238, 1500.000000
4983, 97.545161, 490.392640, 1500.000000
4984, 98.520613, 495.296567, 1500.000000
4985, 97.545161, 490.392640, 1497.856866
4986, 98.032887, 492.844603, 1500.000000
4987, 98.553685, 495.462831, 1497.884086
4988, 145.142339, 478.470168, 1500.000000
4989, 146.593762, 483.254870, 1500.000000
4990, 0.000000, 500.000000, 1500.000000
4991, 0.000000, 505.000000, 1500.000000
4992, 0.000000, 500.000000, 1497.856866
4993, 0.000000, 502.500000, 1500.000000
4994, 0.000000, 505.169521, 1497.884086
4995, 49.008570, 497.592363, 1500.000000
4996, 49.498656, 502.568287, 1500.000000
4997, 510.000000, 0.000000, 1500.000000
4998, 500.200493, 99.496064, 1500.000000
4999, 507.500000, 0.000000, 1500.000000
5000, 510.339042, 0.000000, 1497.911306
5001, 497.748530, 99.008338, 1500.000000
5002, 500.533021, 99.562208, 1497.911306
5003, 507.544211, 49.988742, 1500.000000
5004, 471.178562, 195.168551, 1500.000000
5005, 468.868863, 194.211842, 1500.000000
5006, 471.491796, 195.298296, 1497.911306
5007, 488.039571, 148.045185, 1500.000000
5008, 424.049502, 283.340819, 1500.000000
5009, 421.970828, 281.951893, 1500.000000
5010, 424.331406, 283.529181, 1497.911306
5011, 449.779845, 240.412336, 1500.000000
5012, 360.624458, 360.624458, 1500.000000
5013, 358.856691, 358.856691, 1500.000000
5014, 360.864198, 360.864198, 1497.911306
5015, 394.235331, 323.540575, 1500.000000
5016, 283.340819, 424.049502, 1500.000000
5017, 281.951893, 421.970828, 1500.000000
5018, 283.529181, 424.331406, 1497.911306
5019, 323.540575, 394.235331, 1500.000000
5020, 195.168551, 471.178562, 1500.000000
5021, 194.211842, 468.868863, 1500.000000
5022, 195.298296, 471.491796, 1497.911306
5023, 240.412336, 449.779845, 1500.000000
5024, 99.496064, 500.200493, 1500.000000
5025, 99.008338, 497.748530, 1500.000000
5026, 99.562208, 500.533021, 1497.911306
5027, 148.045185, 488.039571, 1500.000000
5028, 0.000000, 510.000000, 1500.000000
5029, 0.000000, 507.500000, 1500.000000
5030, 0.000000, 510.339042, 1497.911306
5031, 49.988742, 507.544211, 1500.000000
5032, 515.000000, 0.000000, 1500.000000
5033, 505.104419, 100.471516, 1500.000000
5034, 512.500000, 0.000000, 1500.000000
5035, 515.508564, 0.000000, 1497.938525
5036, 502.652456, 99.983790, 1500.000000
5037, 505.603211, 100.570732, 1497.938525
5038, 512.520134, 50.478827, 1500.000000
5039, 475.797959, 197.081968, 1500.000000
5040, 473.488260, 196.125259, 1500.000000
5041, 476.267811, 197.276587, 1497.938525
5042, 492.824273, 149.496609, 1500.000000
5043, 428.206850, 286.118670, 1500.000000
5044, 426.128176, 284.729744, 1500.000000
5045, 428.629706, 286.401213, 1497.938525
5046, 454.189451, 242.769319, 1500.000000
5047, 364.159992, 364.159992, 1500.000000
5048, 362.392225, 362.392225, 1500.000000
5049, 364.519601, 364.519601, 1497.938525
5050, 398.100383, 326.712541, 1500.000000
5051, 286.118670, 428.206850, 1500.000000
5052, 284.729744, 426.128176, 1500.000000
5053, 286.401213, 428.629706, 1497.938525
5054, 326.712541, 398.100383, 1500.000000
5055, 197.081968, 475.797959, 1500.000000
5056, 196.125259, 473.488260, 1500.000000
5057, 197.276587, 476.267811, 1497.938525
5058, 242.769319, 454.189451, 1500.000000
5059, 100.471516, 505.104419, 1500.000000
5060, 99.983790, 502.652456, 1500.000000
5061, 100.570732, 505.603211, 1497.938525
5062, 149.496609, 492.824273, 1500.000000
5063, 0.000000, 515.000000, 1500.000000
5064, 0.000000, 512.500000, 1500.000000
5065, 0.000000, 515.508564, 1497.938525
5066, 50.478827, 512.520134, 1500.000000
5067, 520.000000, 0.000000, 1500.000000
5068, 510.008346, 101.446967, 1500.000000
5069, 517.500000, 0.000000, 1500.000000
5070, 520.678085, 0.000000, 1497.965745
5071, 507.556383, 100.959242, 1500.000000
5072, 510.673402, 101.579255, 1497.965745
5073, 517.496058, 50.968913, 1500.000000
5074, 480.417357, 198.995385, 1500.000000
5075, 478.107658, 198.038676, 1500.000000
5076, 481.043826, 199.254877, 1497.965745
5077, 497.608975, 150.948032, 1500.000000
5078, 432.364198, 288.896521, 1500.000000
5079, 430.285524, 287.507596, 1500.000000
5080, 432.928005, 289.273245, 1497.965745
5081, 458.599057, 245.126303, 1500.000000
5082, 367.695526, 367.695526, 1500.000000
5083, 365.927759, 365.927759, 1500.000000
5084, 368.175005, 368.175005, 1497.965745
5085, 401.965436, 329.884508, 1500.000000
5086, 288.896521, 432.364198, 1500.000000
5087, 287.507596, 430.285524, 1500.000000
5088, 289.273245, 432.928005, 1497.965745
5089, 329.884508, 401.965436, 1500.000000
5090, 198.995385, 480.417357, 1500.000000
5091, 198.038676, 478.107658, 1500.000000
5092, 199.254877, 481.043826, 1497.965745
5093, 245.126303, 458.599057, 1500.000000
5094, 101.446967, 510.008346, 1500.000000
5095, 100.959242, 507.556383, 1500.000000
5096, 101.579255, 510.673402, 1497.965745
5097, 150.948032, 497.608975, 1500.000000
5098, 0.000000, 520.000000, 1500.000000
5099, 0.000000, 517.500000, 1500.000000
5100, 0.000000, 520.678085, 1497.965745
5101, 50.968913, 517.496058, 1500.000000
5102, 499.014412, 0.000000, 1531.145583
5103, 504.004556, 0.000000, 1531.457039
5104, 489.425990, 97.352882, 1531.145583
5105, 494.320249, 98.326411, 1531.457039
5106, 499.728055, 0.000000, 1515.579836
5107, 501.509484, 0.000000, 1531.301311
5108, 504.725336, 0.000000, 1515.735634
5109, 490.125921, 97.492107, 1515.579836
5110, 491.873119, 97.839647, 1531.301311
5111, 495.027180, 98.467028, 1515.735634
5112, 496.611521, 48.911966, 1531.145583
5113, 501.577636, 49.401085, 1531.457039
5114, 461.029201, 190.964548, 1531.145583
5115, 465.639493, 192.874193, 1531.457039
5116, 461.688522, 191.237647, 1515.579836
5117, 463.334347, 191.919371, 1531.301311
5118, 466.305407, 193.150024, 1515.735634
5119, 477.527018, 144.856237, 1531.145583
5120, 482.302289, 146.304800, 1531.457039
5121, 414.915319, 277.237553, 1531.145583
5122, 419.064472, 280.009928, 1531.457039
5123, 415.508692, 277.634032, 1515.579836
5124, 416.989896, 278.623741, 1531.301311
5125, 419.663779, 280.410372, 1515.735634
5126, 440.091421, 235.233765, 1531.145583
5127, 444.492335, 237.586103, 1531.457039
5128, 352.856474, 352.856474, 1531.145583
5129, 356.385039, 356.385039, 1531.457039
5130, 353.361097, 353.361097, 1515.579836
5131, 354.620757, 354.620757, 1531.301311
5132, 356.894708, 356.894708, 1515.735634
5133, 385.743356, 316.571391, 1531.145583
5134, 389.600790, 319.737105, 1531.457039
5135, 277.237553, 414.915319, 1531.145583
5136, 280.009928, 419.064472, 1531.457039
5137, 277.634032, 415.508692, 1515.579836
5138, 278.623741, 416.989896, 1531.301311
5139, 280.410372, 419.663779, 1515.735634
5140, 316.571391, 385.743356, 1531.145583
5141, 319.737105, 389.600790, 1531.457039
5142, 190.964548, 461.029201, 1531.145583
5143, 192.874193, 465.639493, 1531.457039
5144, 191.237647, 461.688522, 1515.579836
5145, 191.919371, 463.334347, 1531.301311
5146, 193.150024, 466.305407, 1515.735634
5147, 235.233765, 440.091421, 1531.145583
5148, 237.586103, 444.492335, 1531.457039
5149, 97.352882, 489.425990, 1531.145583
5150, 98.326411, 494.320249, 1531.457039
5151, 97.492107, 490.125921, 1515.579836
5152, 97.839647, 491.873119, 1531.301311
5153, 98.467028, 495.027180, 1515.735634
5154, 144.856237, 477.527018, 1531.145583
5155, 146.304800, 482.302289, 1531.457039
5156, 0.000000, 499.014412, 1531.145583
5157, 0.000000, 504.004556, 1531.457039
5158, 0.000000, 499.728055, 1515.579836
5159, 0.000000, 501.509484, 1531.301311
5160, 0.000000, 504.725336, 1515.735634
5161, 48.911966, 496.611521, 1531.145583
5162, 49.401085, 501.577636, 1531.457039
5163, 508.994700, 0.000000, 1531.768495
5164, 499.214509, 99.299940, 1531.768495
5165, 506.499628, 0.000000, 1531.612767
5166, 509.722616, 0.000000, 1515.891433
5167, 496.767379, 98.813175, 1531.612767
5168, 499.928439, 99.441949, 1515.891433
5169, 506.543751, 49.890205, 1531.768495
5170, 470.249785, 194.783839, 1531.768495
5171, 467.944639, 193.829016, 1531.612767
5172, 470.922292, 195.062400, 1515.891433
5173, 487.077559, 147.753362, 1531.768495
5174, 423.213626, 282.782304, 1531.768495
5175, 421.139049, 281.396116, 1531.612767
5176, 423.818866, 283.186713, 1515.891433
5177, 448.893249, 239.938441, 1531.768495
5178, 359.913604, 359.913604, 1531.768495
5179, 358.149321, 358.149321, 1531.612767
5180, 360.428319, 360.428319, 1515.891433
5181, 393.458224, 322.902819, 1531.768495
5182, 282.782304, 423.213626, 1531.768495
5183, 281.396116, 421.139049, 1531.612767
5184, 283.186713, 423.818866, 1515.891433
5185, 322.902819, 393.458224, 1531.768495
5186, 194.783839, 470.249785, 1531.768495
5187, 193.829016, 467.944639, 1531.612767
5188, 195.062400, 470.922292, 1515.891433
5189, 239.938441, 448.893249, 1531.768495
5190, 99.299940, 499.214509, 1531.768495
5191, 98.813175, 496.767379, 1531.612767
5192, 99.441949, 499.928439, 1515.891433
5193, 147.753362, 487.077559, 1531.768495
5194, 0.000000, 508.994700, 1531.768495
5195, 0.000000, 506.499628, 1531.612767
5196, 0.000000, 509.722616, 1515.891433
5197, 49.890205, 506.543751, 1531.768495
5198, 513.984844, 0.000000, 1532.079951
5199, 504.108769, 100.273469, 1532.079951
5200, 511.489772, 0.000000, 1531.924223
5201, 514.719897, 0.000000, 1516.047231
5202, 501.661639, 99.786704, 1531.924223
5203, 504.829698, 100.416870, 1516.047231
5204, 511.509866, 50.379325, 1532.079951
5205, 474.860077, 196.693484, 1532.079951
5206, 472.554931, 195.738661, 1531.924223
5207, 475.539178, 196.974777, 1516.047231
5208, 491.852829, 149.201925, 1532.079951
5209, 427.362779, 285.554679, 1532.079951
5210, 425.288202, 284.168492, 1531.924223
5211, 427.973953, 285.963053, 1516.047231
5212, 453.294163, 242.290778, 1532.079951
5213, 363.442169, 363.442169, 1532.079951
5214, 361.677886, 361.677886, 1531.924223
5215, 363.961929, 363.961929, 1516.047231
5216, 397.315657, 326.068533, 1532.079951
5217, 285.554679, 427.362779, 1532.079951
5218, 284.168492, 425.288202, 1531.924223
5219, 285.963053, 427.973953, 1516.047231
5220, 326.068533, 397.315657, 1532.079951
5221, 196.693484, 474.860077, 1532.079951
5222, 195.738661, 472.554931, 1531.924223
5223, 196.974777, 475.539178, 1516.047231
5224, 242.290778, 453.294163, 1532.079951
5225, 100.273469, 504.108769, 1532.079951
5226, 99.786704, 501.661639, 1531.924223
5227, 100.416870, 504.829698, 1516.047231
5228, 149.201925, 491.852829, 1532.079951
5229, 0.000000, 513.984844, 1532.079951
5230, 0.000000, 511.489772, 1531.924223
5231, 0.000000, 514.719897, 1516.047231
5232, 50.379325, 511.509866, 1532.079951
5233, 518.974988, 0.000000, 1532.391406
5234, 509.003029, 101.246998, 1532.391406
5235, 516.479916, 0.000000, 1532.235678
5236, 519.717177, 0.000000, 1516.203029
5237, 506.555899, 100.760233, 1532.235678
5238, 509.730958, 101.391792, 1516.203029
5239, 516.475982, 50.868444, 1532.391406
5240, 479.470369, 198.603130, 1532.391406
5241, 477.165223, 197.648307, 1532.235678
5242, 480.156063, 198.887153, 1516.203029
5243, 496.628099, 150.650487, 1532.391406
5244, 431.511932, 288.327055, 1532.391406
5245, 429.437355, 286.940867, 1532.235678
5246, 432.129040, 288.739393, 1516.203029
5247, 457.695078, 244.643116, 1532.391406
5248, 366.970733, 366.970733, 1532.391406
5249, 365.206451, 365.206451, 1532.235678
5250, 367.495540, 367.495540, 1516.203029
5251, 401.173091, 329.234247, 1532.391406
5252, 288.327055, 431.511932, 1532.391406
5253, 286.940867, 429.437355, 1532.235678
5254, 288.739393, 432.129040, 1516.203029
5255, 329.234247, 401.173091, 1532.391406
5256, 198.603130, 479.470369, 1532.391406
5257, 197.648307, 477.165223, 1532.235678
5258, 198.887153, 480.156063, 1516.203029
5259, 244.643116, 457.695078, 1532.391406
5260, 101.246998, 509.003029, 1532.391406
5261, 100.760233, 506.555899, 1532.235678
5262, 101.391792, 509.730958, 1516.203029
5263, 150.650487, 496.628099, 1532.391406
5264, 0.000000, 518.974988, 1532.391406
5265, 0.000000, 516.479916, 1532.235678
5266, 0.000000, 519.717177, 1516.203029
5267, 50.868444, 516.475982, 1532.391406
5268, 496.095499, 0.000000, 1562.168908
5269, 501.056454, 0.000000, 1562.790597
5270, 486.563163, 96.783431, 1562.168908
5271, 491.428795, 97.751265, 1562.790597
5272, 497.791869, 0.000000, 1546.679462
5273, 498.575976, 0.000000, 1562.479752
5274, 502.769788, 0.000000, 1547.146256
5275, 488.226938, 97.114376, 1546.679462
5276, 488.995979, 97.267348, 1562.479752
5277, 493.109207, 98.085520, 1547.146256
5278, 493.706663, 48.625862, 1562.168908
5279, 498.643730, 49.112121, 1562.790597
5280, 458.332478, 189.847528, 1562.168908
5281, 462.915802, 191.746004, 1562.790597
5282, 459.899719, 190.496701, 1546.679462
5283, 460.624140, 190.796766, 1562.479752
5284, 464.498716, 192.401668, 1547.146256
5285, 474.733793, 144.008922, 1562.168908
5286, 479.481131, 145.449011, 1562.790597
5287, 412.488332, 275.615892, 1562.168908
5288, 416.613215, 278.372051, 1562.790597
5289, 413.898812, 276.558345, 1546.679462
5290, 414.550774, 276.993971, 1562.479752
5291, 418.037801, 279.323928, 1547.146256
5292, 437.517170, 233.857799, 1562.168908
5293, 441.892341, 236.196377, 1562.790597
5294, 350.792491, 350.792491, 1562.168908
5295, 354.300416, 354.300416, 1562.790597
5296, 351.992006, 351.992006, 1546.679462
5297, 352.546454, 352.546454, 1562.479752
5298, 355.511926, 355.511926, 1547.146256
5299, 383.487006, 314.719653, 1562.168908
5300, 387.321877, 317.866849, 1562.790597
5301, 275.615892, 412.488332, 1562.168908
5302, 278.372051, 416.613215, 1562.790597
5303, 276.558345, 413.898812, 1546.679462
5304, 276.993971, 414.550774, 1562.479752
5305, 279.323928, 418.037801, 1547.146256
5306, 314.719653, 383.487006, 1562.168908
5307, 317.866849, 387.321877, 1562.790597
5308, 189.847528, 458.332478, 1562.168908
5309, 191.746004, 462.915802, 1562.790597
5310, 190.496701, 459.899719, 1546.679462
5311, 190.796766, 460.624140, 1562.479752
5312, 192.401668, 464.498716, 1547.146256
5313, 233.857799, 437.517170, 1562.168908
5314, 236.196377, 441.892341, 1562.790597
5315, 96.783431, 486.563163, 1562.168908
5316, 97.751265, 491.428795, 1562.790597
5317, 97.114376, 488.226938, 1546.679462
5318, 97.267348, 488.995979, 1562.479752
5319, 98.085520, 493.109207, 1547.146256
5320, 144.008922, 474.733793, 1562.168908
5321, 145.449011, 479.481131, 1562.790597
5322, 0.000000, 496.095499, 1562.168908
5323, 0.000000, 501.056454, 1562.790597
5324, 0.000000, 497.791869, 1546.679462
5325, 0.000000, 498.575976, 1562.479752
5326, 0.000000, 502.769788, 1547.146256
5327, 48.625862, 493.706663, 1562.168908
5328, 49.112121, 498.643730, 1562.790597
5329, 506.017409, 0.000000, 1563.412286
5330, 496.294426, 98.719099, 1563.412286
5331, 503.536931, 0.000000, 1563.101442
5332, 507.747706, 0.000000, 1547.613051
5333, 493.861610, 98.235182, 1563.101442
5334, 497.991477, 99.056664, 1547.613051
5335, 503.580797, 49.598379, 1563.412286
5336, 467.499127, 193.644479, 1563.412286
5337, 465.207465, 192.695241, 1563.101442
5338, 469.097714, 194.306635, 1547.613051
5339, 484.228469, 146.889100, 1563.412286
5340, 420.738099, 281.128210, 1563.412286
5341, 418.675657, 279.750130, 1563.101442
5342, 422.176789, 282.089512, 1547.613051
5343, 446.267513, 238.534955, 1563.412286
5344, 357.808341, 357.808341, 1563.412286
5345, 356.054379, 356.054379, 1563.101442
5346, 359.031846, 359.031846, 1547.613051
5347, 391.156747, 321.014046, 1563.412286
5348, 281.128210, 420.738099, 1563.412286
5349, 279.750130, 418.675657, 1563.101442
5350, 282.089512, 422.176789, 1547.613051
5351, 321.014046, 391.156747, 1563.412286
5352, 193.644479, 467.499127, 1563.412286
5353, 192.695241, 465.207465, 1563.101442
5354, 194.306635, 469.097714, 1547.613051
5355, 238.534955, 446.267513, 1563.412286
5356, 98.719099, 496.294426, 1563.412286
5357, 98.235182, 493.861610, 1563.101442
5358, 99.056664, 497.991477, 1547.613051
5359, 146.889100, 484.228469, 1563.412286
5360, 0.000000, 506.017409, 1563.412286
5361, 0.000000, 503.536931, 1563.101442
5362, 0.000000, 507.747706, 1547.613051
5363, 49.598379, 503.580797, 1563.412286
5364, 510.978364, 0.000000, 1564.033975
5365, 501.160058, 99.686934, 1564.033975
5366, 508.497886, 0.000000, 1563.723131
5367, 512.725625, 0.000000, 1548.079846
5368, 498.727242, 99.203016, 1563.723131
5369, 502.873746, 100.027807, 1548.079846
5370, 508.517863, 50.084638, 1564.033975
5371, 472.082452, 195.542954, 1564.033975
5372, 469.790789, 194.593716, 1563.723131
5373, 473.696711, 196.211602, 1548.079846
5374, 488.975807, 148.329189, 1564.033975
5375, 424.862982, 283.884369, 1564.033975
5376, 422.800540, 282.506289, 1563.723131
5377, 426.315777, 284.855095, 1548.079846
5378, 450.642685, 240.873533, 1564.033975
5379, 361.316266, 361.316266, 1564.033975
5380, 359.562304, 359.562304, 1563.723131
5381, 362.551766, 362.551766, 1548.079846
5382, 394.991617, 324.161242, 1564.033975
5383, 283.884369, 424.862982, 1564.033975
5384, 282.506289, 422.800540, 1563.723131
5385, 284.855095, 426.315777, 1548.079846
5386, 324.161242, 394.991617, 1564.033975
5387, 195.542954, 472.082452, 1564.033975
5388, 194.593716, 469.790789, 1563.723131
5389, 196.211602, 473.696711, 1548.079846
5390, 240.873533, 450.642685, 1564.033975
5391, 99.686934, 501.160058, 1564.033975
5392, 99.203016, 498.727242, 1563.723131
5393, 100.027807, 502.873746, 1548.079846
5394, 148.329189, 488.975807, 1564.033975
5395, 0.000000, 510.978364, 1564.033975
5396, 0.000000, 508.497886, 1563.723131
5397, 0.000000, 512.725625, 1548.079846
5398, 50.084638, 508.517863, 1564.033975
5399, 515.939319, 0.000000, 1564.655664
5400, 506.025689, 100.654768, 1564.655664
5401, 513.458841, 0.000000, 1564.344820
5402, 517.703544, 0.000000, 1548.546640
5403, 503.592874, 100.170851, 1564.344820
5404, 507.756015, 100.998951, 1548.546640
5405, 513.454930, 50.570897, 1564.655664
5406, 476.665777, 197.441429, 1564.655664
5407, 474.374114, 196.492192, 1564.344820
5408, 478.295708, 198.116569, 1548.546640
5409, 493.723145, 149.769279, 1564.655664
5410, 428.987865, 286.640528, 1564.655664
5411, 426.925424, 285.262448, 1564.344820
5412, 430.454765, 287.620678, 1548.546640
5413, 455.017856, 243.212111, 1564.655664
5414, 364.824191, 364.824191, 1564.655664
5415, 363.070229, 363.070229, 1564.344820
5416, 366.071686, 366.071686, 1548.546640
5417, 398.826487, 327.308439, 1564.655664
5418, 286.640528, 428.987865, 1564.655664
5419, 285.262448, 426.925424, 1564.344820
5420, 287.620678, 430.454765, 1548.546640
5421, 327.308439, 398.826487, 1564.655664
5422, 197.441429, 476.665777, 1564.655664
5423, 196.492192, 474.374114, 1564.344820
5424, 198.116569, 478.295708, 1548.546640
5425, 243.212111, 455.017856, 1564.655664
5426, 100.654768, 506.025689, 1564.655664
5427, 100.170851, 503.592874, 1564.344820
5428, 100.998951, 507.756015, 1548.546640
5429, 149.769279, 493.723145, 1564.655664
5430, 0.000000, 515.939319, 1564.655664
5431, 0.000000, 513.458841, 1564.344820
5432, 0.000000, 517.703544, 1548.546640
5433, 50.570897, 513.454930, 1564.655664
5434, 491.254599, 0.000000, 1592.950416
5435, 496.167145, 0.000000, 1593.879920
5436, 481.815279, 95.839018, 1592.950416
5437, 486.633432, 96.797408, 1593.879920
5438, 493.926915, 0.000000, 1577.599178
5439, 493.710872, 0.000000, 1593.415168
5440, 498.866185, 0.000000, 1578.375170
5441, 484.436248, 96.360361, 1577.599178
5442, 484.224356, 96.318213, 1593.415168
5443, 489.280611, 97.323965, 1578.375170
5444, 488.889073, 48.151371, 1592.950416
5445, 493.777964, 48.632885, 1593.879920
5446, 453.860069, 187.994996, 1592.950416
5447, 458.398670, 189.874946, 1593.879920
5448, 456.328968, 189.017647, 1577.599178
5449, 456.129369, 188.934971, 1593.415168
5450, 460.892257, 190.907824, 1578.375170
5451, 470.101341, 142.603683, 1592.950416
5452, 474.802354, 144.029719, 1593.879920
5453, 408.463271, 272.926432, 1592.950416
5454, 412.547903, 275.655696, 1593.879920
5455, 410.685221, 274.411091, 1577.599178
5456, 410.505587, 274.291064, 1593.415168
5457, 414.792073, 277.155202, 1578.375170
5458, 433.247877, 231.575815, 1592.950416
5459, 437.580355, 233.891573, 1593.879920
5460, 347.369458, 347.369458, 1592.950416
5461, 350.843153, 350.843153, 1593.879920
5462, 349.259071, 349.259071, 1577.599178
5463, 349.106305, 349.106305, 1593.415168
5464, 352.751662, 352.751662, 1578.375170
5465, 379.744940, 311.648618, 1592.950416
5466, 383.542389, 314.765104, 1593.879920
5467, 272.926432, 408.463271, 1592.950416
5468, 275.655696, 412.547903, 1593.879920
5469, 274.411091, 410.685221, 1577.599178
5470, 274.291064, 410.505587, 1593.415168
5471, 277.155202, 414.792073, 1578.375170
5472, 311.648618, 379.744940, 1592.950416
5473, 314.765104, 383.542389, 1593.879920
5474, 187.994996, 453.860069, 1592.950416
5475, 189.874946, 458.398670, 1593.879920
5476, 189.017647, 456.328968, 1577.599178
5477, 188.934971, 456.129369, 1593.415168
5478, 190.907824, 460.892257, 1578.375170
5479, 231.575815, 433.247877, 1592.950416
5480, 233.891573, 437.580355, 1593.879920
5481, 95.839018, 481.815279, 1592.950416
5482, 96.797408, 486.633432, 1593.879920
5483, 96.360361, 484.436248, 1577.599178
5484, 96.318213, 484.224356, 1593.415168
5485, 97.323965, 489.280611, 1578.375170
5486, 142.603683, 470.101341, 1592.950416
5487, 144.029719, 474.802354, 1593.879920
5488, 0.000000, 491.254599, 1592.950416
5489, 0.000000, 496.167145, 1593.879920
5490, 0.000000, 493.926915, 1577.599178
5491, 0.000000, 493.710872, 1593.415168
5492, 0.000000, 498.866185, 1578.375170
5493, 48.151371, 488.889073, 1592.950416
5494, 48.632885, 493.777964, 1593.879920
5495, 501.079691, 0.000000, 1594.809424
5496, 491.451585, 97.755798, 1594.809424
5497, 498.623418, 0.000000, 1594.344672
5498, 503.805454, 0.000000, 1579.151162
5499, 489.042508, 97.276603, 1594.344672
5500, 494.124973, 98.287568, 1579.151162
5501, 498.666855, 49.114398, 1594.809424
5502, 462.937270, 191.754896, 1594.809424
5503, 460.667970, 190.814921, 1594.344672
5504, 465.455547, 192.798000, 1579.151162
5505, 479.503367, 145.455756, 1594.809424
5506, 416.632536, 278.384960, 1594.809424
5507, 414.590220, 277.020328, 1594.344672
5508, 418.898925, 279.899313, 1579.151162
5509, 441.912834, 236.207331, 1594.809424
5510, 354.316847, 354.316847, 1594.809424
5511, 352.580000, 352.580000, 1594.344672
5512, 356.244253, 356.244253, 1579.151162
5513, 387.339839, 317.881591, 1594.809424
5514, 278.384960, 416.632536, 1594.809424
5515, 277.020328, 414.590220, 1594.344672
5516, 279.899313, 418.898925, 1579.151162
5517, 317.881591, 387.339839, 1594.809424
5518, 191.754896, 462.937270, 1594.809424
5519, 190.814921, 460.667970, 1594.344672
5520, 192.798000, 465.455547, 1579.151162
5521, 236.207331, 441.912834, 1594.809424
5522, 97.755798, 491.451585, 1594.809424
5523, 97.276603, 489.042508, 1594.344672
5524, 98.287568, 494.124973, 1579.151162
5525, 145.455756, 479.503367, 1594.809424
5526, 0.000000, 501.079691, 1594.809424
5527, 0.000000, 498.623418, 1594.344672
5528, 0.000000, 503.805454, 1579.151162
5529, 49.114398, 498.666855, 1594.809424
5530, 505.992237, 0.000000, 1595.738928
5531, 496.269738, 98.714188, 1595.738928
5532, 503.535964, 0.000000, 1595.274176
5533, 508.744723, 0.000000, 1579.927154
5534, 493.860661, 98.234993, 1595.274176
5535, 498.969336, 99.251172, 1579.927154
5536, 503.555746, 49.595912, 1595.738928
5537, 467.475871, 193.634846, 1595.738928
5538, 465.206571, 192.694871, 1595.274176
5539, 470.018837, 194.688177, 1579.927154
5540, 484.204381, 146.881793, 1595.738928
5541, 420.717169, 281.114225, 1595.738928
5542, 418.674852, 279.749593, 1595.274176
5543, 423.005777, 282.643424, 1579.927154
5544, 446.245313, 238.523089, 1595.738928
5545, 357.790542, 357.790542, 1595.738928
5546, 356.053694, 356.053694, 1595.274176
5547, 359.736843, 359.736843, 1579.927154
5548, 391.137288, 320.998077, 1595.738928
5549, 281.114225, 420.717169, 1595.738928
5550, 279.749593, 418.674852, 1595.274176
5551, 282.643424, 423.005777, 1579.927154
5552, 320.998077, 391.137288, 1595.738928
5553, 193.634846, 467.475871, 1595.738928
5554, 192.694871, 465.206571, 1595.274176
5555, 194.688177, 470.018837, 1579.927154
5556, 238.523089, 446.245313, 1595.738928
5557, 98.714188, 496.269738, 1595.738928
5558, 98.234993, 493.860661, 1595.274176
5559, 99.251172, 498.969336, 1579.927154
5560, 146.881793, 484.204381, 1595.738928
5561, 0.000000, 505.992237, 1595.738928
5562, 0.000000, 503.535964, 1595.274176
5563, 0.000000, 508.744723, 1579.927154
5564, 49.595912, 503.555746, 1595.738928
5565, 510.904783, 0.000000, 1596.668432
5566, 501.087890, 99.672579, 1596.668432
5567, 508.448510, 0.000000, 1596.203680
5568, 513.683992, 0.000000, 1580.703145
5569, 498.678814, 99.193383, 1596.203680
5570, 503.813698, 100.214775, 1580.703145
5571, 508.444636, 50.077426, 1596.668432
5572, 472.014472, 195.514796, 1596.668432
5573, 469.745171, 194.574821, 1596.203680
5574, 474.582126, 196.578353, 1580.703145
5575, 488.905394, 148.307830, 1596.668432
5576, 424.801801, 283.843489, 1596.668432
5577, 422.759485, 282.478857, 1596.203680
5578, 427.112630, 285.387535, 1580.703145
5579, 450.577792, 240.838847, 1596.668432
5580, 361.264236, 361.264236, 1596.668432
5581, 359.527389, 359.527389, 1596.203680
5582, 363.229434, 363.229434, 1580.703145
5583, 394.934738, 324.114563, 1596.668432
5584, 283.843489, 424.801801, 1596.668432
5585, 282.478857, 422.759485, 1596.203680
5586, 285.387535, 427.112630, 1580.703145
5587, 324.114563, 394.934738, 1596.668432
5588, 195.514796, 472.014472, 1596.668432
5589, 194.574821, 469.745171, 1596.203680
5590, 196.578353, 474.582126, 1580.703145
5591, 240.838847, 450.577792, 1596.668432
5592, 99.672579, 501.087890, 1596.668432
5593, 99.193383, 498.678814, 1596.203680
5594, 100.214775, 503.813698, 1580.703145
5595, 148.307830, 488.905394, 1596.668432
5596, 0.000000, 510.904783, 1596.668432
5597, 0.000000, 508.448510, 1596.203680
5598, 0.000000, 513.683992, 1580.703145
5599, 50.077426, 508.444636, 1596.668432
5600, 484.510411, 0.000000, 1623.371479
5601, 489.355515, 0.000000, 1624.605194
5602, 475.200680, 94.523292, 1623.371479
5603, 479.952686, 95.468525, 1624.605194
5604, 488.148004, 0.000000, 1608.219807
5605, 486.932963, 0.000000, 1623.988336
5606, 493.029484, 0.000000, 1609.302005
5607, 478.768377, 95.232951, 1608.219807
5608, 477.576683, 94.995909, 1623.988336
5609, 483.556060, 96.185281, 1609.302005
5610, 482.177361, 47.490325, 1623.371479
5611, 486.999135, 47.965228, 1624.605194
5612, 447.629252, 185.414107, 1623.371479
5613, 452.105545, 187.268248, 1624.605194
5614, 450.989949, 186.806154, 1608.219807
5615, 449.867399, 186.341178, 1623.988336
5616, 455.499849, 188.674215, 1609.302005
5617, 463.647556, 140.645948, 1623.371479
5618, 468.284031, 142.052408, 1624.605194
5619, 402.855684, 269.179562, 1623.371479
5620, 406.884241, 271.871358, 1624.605194
5621, 405.880231, 271.200500, 1608.219807
5622, 404.869962, 270.525460, 1623.988336
5623, 409.939034, 273.912505, 1609.302005
5624, 427.300035, 228.396627, 1623.371479
5625, 431.573035, 230.680593, 1624.605194
5626, 342.600597, 342.600597, 1623.371479
5627, 346.026603, 346.026603, 1624.605194
5628, 345.172764, 345.172764, 1608.219807
5629, 344.313600, 344.313600, 1623.988336
5630, 348.624491, 348.624491, 1609.302005
5631, 374.531613, 307.370151, 1623.371479
5632, 378.276929, 310.443853, 1624.605194
5633, 269.179562, 402.855684, 1623.371479
5634, 271.871358, 406.884241, 1624.605194
5635, 271.200500, 405.880231, 1608.219807
5636, 270.525460, 404.869962, 1623.988336
5637, 273.912505, 409.939034, 1609.302005
5638, 307.370151, 374.531613, 1623.371479
5639, 310.443853, 378.276929, 1624.605194
5640, 185.414107, 447.629252, 1623.371479
5641, 187.268248, 452.105545, 1624.605194
5642, 186.806154, 450.989949, 1608.219807
5643, 186.341178, 449.867399, 1623.988336
5644, 188.674215, 455.499849, 1609.302005
5645, 228.396627, 427.300035, 1623.371479
5646, 230.680593, 431.573035, 1624.605194
5647, 94.523292, 475.200680, 1623.371479
5648, 95.468525, 479.952686, 1624.605194
5649, 95.232951, 478.768377, 1608.219807
5650, 94.995909, 477.576683, 1623.988336
5651, 96.185281, 483.556060, 1609.302005
5652, 140.645948, 463.647556, 1623.371479
5653, 142.052408, 468.284031, 1624.605194
5654, 0.000000, 484.510411, 1623.371479
5655, 0.000000, 489.355515, 1624.605194
5656, 0.000000, 488.148004, 1608.219807
5657, 0.000000, 486.932963, 1623.988336
5658, 0.000000, 493.029484, 1609.302005
5659, 47.490325, 482.177361, 1623.371479
5660, 47.965228, 486.999135, 1624.605194
5661, 494.200620, 0.000000, 1625.838908
5662, 484.704693, 96.413758, 1625.838908
5663, 491.778067, 0.000000, 1625.222051
5664, 497.910964, 0.000000, 1610.384203
5665, 482.328690, 95.941142, 1625.222051
5666, 488.343744, 97.137610, 1610.384203
5667, 491.820908, 48.440131, 1625.838908
5668, 456.581837, 189.122389, 1625.838908
5669, 454.343691, 188.195319, 1625.222051
5670, 460.009748, 190.542277, 1610.384203
5671, 472.920507, 143.458867, 1625.838908
5672, 410.912798, 274.563153, 1625.838908
5673, 408.898519, 273.217256, 1625.222051
5674, 413.997836, 276.624510, 1610.384203
5675, 435.846035, 232.964559, 1625.838908
5676, 349.452609, 349.452609, 1625.838908
5677, 347.739606, 347.739606, 1625.222051
5678, 352.076219, 352.076219, 1610.384203
5679, 382.022245, 313.517554, 1625.838908
5680, 274.563153, 410.912798, 1625.838908
5681, 273.217256, 408.898519, 1625.222051
5682, 276.624510, 413.997836, 1610.384203
5683, 313.517554, 382.022245, 1625.838908
5684, 189.122389, 456.581837, 1625.838908
5685, 188.195319, 454.343691, 1625.222051
5686, 190.542277, 460.009748, 1610.384203
5687, 232.964559, 435.846035, 1625.838908
5688, 96.413758, 484.704693, 1625.838908
5689, 95.941142, 482.328690, 1625.222051
5690, 97.137610, 488.343744, 1610.384203
5691, 143.458867, 472.920507, 1625.838908
5692, 0.000000, 494.200620, 1625.838908
5693, 0.000000, 491.778067, 1625.222051
5694, 0.000000, 497.910964, 1610.384203
5695, 48.440131, 491.820908, 1625.838908
5696, 499.045724, 0.000000, 1627.072623
5697, 489.456700, 97.358991, 1627.072623
5698, 496.623172, 0.000000, 1626.455766
5699, 502.792444, 0.000000, 1611.466401
5700, 487.080697, 96.886374, 1626.455766
5701, 493.131428, 98.089940, 1611.466401
5702, 496.642682, 48.915035, 1627.072623
5703, 461.058130, 190.976530, 1627.072623
5704, 458.819984, 190.049460, 1626.455766
5705, 464.519648, 192.410338, 1611.466401
5706, 477.556982, 144.865327, 1627.072623
5707, 414.941354, 277.254949, 1627.072623
5708, 412.927076, 275.909051, 1626.455766
5709, 418.056638, 279.336515, 1611.466401
5710, 440.119036, 235.248526, 1627.072623
5711, 352.878615, 352.878615, 1627.072623
5712, 351.165612, 351.165612, 1626.455766
5713, 355.527946, 355.527946, 1611.466401
5714, 385.767561, 316.591256, 1627.072623
5715, 277.254949, 414.941354, 1627.072623
5716, 275.909051, 412.927076, 1626.455766
5717, 279.336515, 418.056638, 1611.466401
5718, 316.591256, 385.767561, 1627.072623
5719, 190.976530, 461.058130, 1627.072623
5720, 190.049460, 458.819984, 1626.455766
5721, 192.410338, 464.519648, 1611.466401
5722, 235.248526, 440.119036, 1627.072623
5723, 97.358991, 489.456700, 1627.072623
5724, 96.886374, 487.080697, 1626.455766
5725, 98.089940, 493.131428, 1611.466401
5726, 144.865327, 477.556982, 1627.072623
5727, 0.000000, 499.045724, 1627.072623
5728, 0.000000, 496.623172, 1626.455766
5729, 0.000000, 502.792444, 1611.466401
5730, 48.915035, 496.642682, 1627.072623
5731, 503.890828, 0.000000, 1628.306338
5732, 494.208707, 98.304224, 1628.306338
5733, 501.468276, 0.000000, 1627.689481
5734, 507.673924, 0.000000, 1612.548599
5735, 491.832703, 97.831607, 1627.689481
5736, 497.919112, 99.042269, 1612.548599
5737, 501.464456, 49.389938, 1628.306338
5738, 465.534422, 192.830671, 1628.306338
5739, 463.296276, 191.903601, 1627.689481
5740, 469.029547, 194.278400, 1612.548599
5741, 482.193458, 146.271786, 1628.306338
5742, 418.969911, 279.946745, 1628.306338
5743, 416.955633, 278.600847, 1627.689481
5744, 422.115441, 282.048520, 1612.548599
5745, 444.392036, 237.532492, 1628.306338
5746, 356.304621, 356.304621, 1628.306338
5747, 354.591618, 354.591618, 1627.689481
5748, 358.979674, 358.979674, 1612.548599
5749, 389.512877, 319.664957, 1628.306338
5750, 279.946745, 418.969911, 1628.306338
5751, 278.600847, 416.955633, 1627.689481
5752, 282.048520, 422.115441, 1612.548599
5753, 319.664957, 389.512877, 1628.306338
5754, 192.830671, 465.534422, 1628.306338
5755, 191.903601, 463.296276, 1627.689481
5756, 194.278400, 469.029547, 1612.548599
5757, 237.532492, 444.392036, 1628.306338
5758, 98.304224, 494.208707, 1628.306338
5759, 97.831607, 491.832703, 1627.689481
5760, 99.042269, 497.919112, 1612.548599
5761, 146.271786, 482.193458, 1628.306338
5762, 0.000000, 503.890828, 1628.306338
5763, 0.000000, 501.468276, 1627.689481
5764, 0.000000, 507.673924, 1612.548599
5765, 49.389938, 501.464456, 1628.306338
5766, 475.888929, 0.000000, 1653.314852
5767, 480.647819, 0.000000, 1654.848001
5768, 466.744857, 92.841324, 1653.314852
5769, 471.412306, 93.769738, 1654.848001
5770, 480.444639, 0.000000, 1638.413795
5771, 478.268374, 0.000000, 1654.081426
5772, 485.249086, 0.000000, 1639.797933
5773, 471.213030, 93.730099, 1638.413795
5774, 469.078581, 93.305531, 1654.081426
5775, 475.925161, 94.667400, 1639.797933
5776, 473.597394, 46.645272, 1653.314852
5777, 478.333368, 47.111725, 1654.848001
5778, 439.664042, 182.114809, 1653.314852
5779, 444.060682, 183.935957, 1654.848001
5780, 443.872969, 183.858204, 1638.413795
5781, 441.862362, 183.025383, 1654.081426
5782, 448.311699, 185.696786, 1639.797933
5783, 455.397312, 138.143264, 1653.314852
5784, 459.951285, 139.524697, 1654.848001
5785, 395.687184, 264.389723, 1653.314852
5786, 399.644056, 267.033621, 1654.848001
5787, 399.475118, 266.920740, 1638.413795
5788, 397.665620, 265.711672, 1654.081426
5789, 403.469869, 269.589948, 1639.797933
5790, 419.696566, 224.332488, 1653.314852
5791, 423.893532, 226.575813, 1654.848001
5792, 336.504289, 336.504289, 1653.314852
5793, 339.869332, 339.869332, 1654.848001
5794, 339.725663, 339.725663, 1638.413795
5795, 338.186811, 338.186811, 1654.081426
5796, 343.122919, 343.122919, 1639.797933
5797, 367.867117, 301.900741, 1653.314852
5798, 371.545788, 304.919748, 1654.848001
5799, 264.389723, 395.687184, 1653.314852
5800, 267.033621, 399.644056, 1654.848001
5801, 266.920740, 399.475118, 1638.413795
5802, 265.711672, 397.665620, 1654.081426
5803, 269.589948, 403.469869, 1639.797933
5804, 301.900741, 367.867117, 1653.314852
5805, 304.919748, 371.545788, 1654.848001
5806, 182.114809, 439.664042, 1653.314852
5807, 183.935957, 444.060682, 1654.848001
5808, 183.858204, 443.872969, 1638.413795
5809, 183.025383, 441.862362, 1654.081426
5810, 185.696786, 448.311699, 1639.797933
5811, 224.332488, 419.696566, 1653.314852
5812, 226.575813, 423.893532, 1654.848001
5813, 92.841324, 466.744857, 1653.314852
5814, 93.769738, 471.412306, 1654.848001
5815, 93.730099, 471.213030, 1638.413795
5816, 93.305531, 469.078581, 1654.081426
5817, 94.667400, 475.925161, 1639.797933
5818, 138.143264, 455.397312, 1653.314852
5819, 139.524697, 459.951285, 1654.848001
5820, 0.000000, 475.888929, 1653.314852
5821, 0.000000, 480.647819, 1654.848001
5822, 0.000000, 480.444639, 1638.413795
5823, 0.000000, 478.268374, 1654.081426
5824, 0.000000, 485.249086, 1639.797933
5825, 46.645272, 473.597394, 1653.314852
5826, 47.111725, 478.333368, 1654.848001
5827, 485.406708, 0.000000, 1656.381149
5828, 476.079754, 94.698151, 1656.381149
5829, 483.027263, 0.000000, 1655.614575
5830, 490.053532, 0.000000, 1641.182071
5831, 473.746030, 94.233944, 1655.614575
5832, 480.637291, 95.604701, 1641.182071
5833, 483.069342, 47.578177, 1656.381149
5834, 448.457323, 185.757105, 1656.381149
5835, 446.259002, 184.846531, 1655.614575
5836, 452.750428, 187.535368, 1641.182071
5837, 464.505258, 140.906130, 1656.381149
5838, 403.600927, 269.677518, 1656.381149
5839, 401.622491, 268.355569, 1655.614575
5840, 407.464620, 272.259155, 1641.182071
5841, 428.090498, 228.819138, 1656.381149
5842, 343.234375, 343.234375, 1656.381149
5843, 341.551853, 341.551853, 1655.614575
5844, 346.520176, 346.520176, 1641.182071
5845, 375.224459, 307.938756, 1656.381149
5846, 269.677518, 403.600927, 1656.381149
5847, 268.355569, 401.622491, 1655.614575
5848, 272.259155, 407.464620, 1641.182071
5849, 307.938756, 375.224459, 1656.381149
5850, 185.757105, 448.457323, 1656.381149
5851, 184.846531, 446.259002, 1655.614575
5852, 187.535368, 452.750428, 1641.182071
5853, 228.819138, 428.090498, 1656.381149
5854, 94.698151, 476.079754, 1656.381149
5855, 94.233944, 473.746030, 1655.614575
5856, 95.604701, 480.637291, 1641.182071
5857, 140.906130, 464.505258, 1656.381149
5858, 0.000000, 485.406708, 1656.381149
5859, 0.000000, 483.027263, 1655.614575
5860, 0.000000, 490.053532, 1641.182071
5861, 47.578177, 483.069342, 1656.381149
5862, 490.165597, 0.000000, 1657.914298
5863, 480.747203, 95.626564, 1657.914298
5864, 487.786153, 0.000000, 1657.147723
5865, 494.857979, 0.000000, 1642.566209
5866, 478.413479, 95.162358, 1657.147723
5867, 485.349421, 96.542002, 1642.566209
5868, 487.805316, 48.044630, 1657.914298
5869, 452.853963, 187.578253, 1657.914298
5870, 450.655643, 186.667679, 1657.147723
5871, 457.189158, 189.373950, 1642.566209
5872, 469.059231, 142.287562, 1657.914298
5873, 407.557799, 272.321415, 1657.914298
5874, 405.579363, 270.999467, 1657.147723
5875, 411.459372, 274.928363, 1642.566209
5876, 432.287463, 231.062463, 1657.914298
5877, 346.599418, 346.599418, 1657.914298
5878, 344.916896, 344.916896, 1657.147723
5879, 349.917432, 349.917432, 1642.566209
5880, 378.903131, 310.957763, 1657.914298
5881, 272.321415, 407.557799, 1657.914298
5882, 270.999467, 405.579363, 1657.147723
5883, 274.928363, 411.459372, 1642.566209
5884, 310.957763, 378.903131, 1657.914298
5885, 187.578253, 452.853963, 1657.914298
5886, 186.667679, 450.655643, 1657.147723
5887, 189.373950, 457.189158, 1642.566209
5888, 231.062463, 432.287463, 1657.914298
5889, 95.626564, 480.747203, 1657.914298
5890, 95.162358, 478.413479, 1657.147723
5891, 96.542002, 485.349421, 1642.566209
5892, 142.287562, 469.059231, 1657.914298
5893, 0.000000, 490.165597, 1657.914298
5894, 0.000000, 487.786153, 1657.147723
5895, 0.000000, 494.857979, 1642.566209
5896, 48.044630, 487.805316, 1657.914298
5897, 494.924487, 0.000000, 1659.447446
5898, 485.414651, 96.554977, 1659.447446
5899, 492.545042, 0.000000, 1658.680872
5900, 499.662425, 0.000000, 1643.950347
5901, 483.080927, 96.090771, 1658.680872
5902, 490.061552, 97.479303, 1643.950347
5903, 492.541290, 48.511083, 1659.447446
5904, 457.250603, 189.399401, 1659.447446
5905, 455.052283, 188.488827, 1658.680872
5906, 461.627888, 191.212532, 1643.950347
5907, 473.613204, 143.668995, 1659.447446
5908, 411.514671, 274.965312, 1659.447446
5909, 409.536235, 273.643364, 1658.680872
5910, 415.454123, 277.597570, 1643.950347
5911, 436.484429, 233.305788, 1659.447446
5912, 349.964461, 349.964461, 1659.447446
5913, 348.281939, 348.281939, 1658.680872
5914, 353.314689, 353.314689, 1643.950347
5915, 382.581802, 313.976771, 1659.447446
5916, 274.965312, 411.514671, 1659.447446
5917, 273.643364, 409.536235, 1658.680872
5918, 277.597570, 415.454123, 1643.950347
5919, 313.976771, 382.581802, 1659.447446
5920, 189.399401, 457.250603, 1659.447446
5921, 188.488827, 455.052283, 1658.680872
5922, 191.212532, 461.627888, 1643.950347
5923, 233.305788, 436.484429, 1659.447446
5924, 96.554977, 485.414651, 1659.447446
5925, 96.090771, 483.080927, 1658.680872
5926, 97.479303, 490.061552, 1643.950347
5927, 143.668995, 473.613204, 1659.447446
5928, 0.000000, 494.924487, 1659.447446
5929, 0.000000, 492.545042, 1658.680872
5930, 0.000000, 499.662425, 1643.950347
5931, 48.511083, 492.541290, 1659.447446
5932, 465.423339, 0.000000, 1682.665119
5933, 470.077573, 0.000000, 1684.491770
5934, 456.480360, 90.799589, 1682.665119
5935, 461.045164, 91.707585, 1684.491770
5936, 470.880240, 0.000000, 1668.069975
5937, 467.750456, 0.000000, 1683.578444
5938, 475.589043, 0.000000, 1669.750675
5939, 461.832408, 91.864178, 1668.069975
5940, 458.762762, 91.253587, 1683.578444
5941, 466.450733, 92.782819, 1669.750675
5942, 463.182199, 45.619465, 1682.665119
5943, 467.814021, 46.075659, 1684.491770
5944, 429.995097, 178.109801, 1682.665119
5945, 434.295048, 179.890899, 1684.491770
5946, 435.036616, 180.198067, 1668.069975
5947, 432.145072, 179.000350, 1683.578444
5948, 439.386982, 182.000047, 1669.750675
5949, 445.382366, 135.105264, 1682.665119
5950, 449.836190, 136.456316, 1684.491770
5951, 386.985363, 258.575353, 1682.665119
5952, 390.855217, 261.161107, 1684.491770
5953, 391.522611, 261.607045, 1668.069975
5954, 388.920290, 259.868230, 1683.578444
5955, 395.437837, 264.223115, 1669.750675
5956, 410.466740, 219.399043, 1682.665119
5957, 414.571407, 221.593034, 1684.491770
5958, 329.103999, 329.103999, 1682.665119
5959, 332.395039, 332.395039, 1684.491770
5960, 332.962611, 332.962611, 1668.069975
5961, 330.749519, 330.749519, 1683.578444
5962, 336.292237, 336.292237, 1669.750675
5963, 359.777106, 295.261441, 1682.665119
5964, 363.374877, 298.214055, 1684.491770
5965, 258.575353, 386.985363, 1682.665119
5966, 261.161107, 390.855217, 1684.491770
5967, 261.607045, 391.522611, 1668.069975
5968, 259.868230, 388.920290, 1683.578444
5969, 264.223115, 395.437837, 1669.750675
5970, 295.261441, 359.777106, 1682.665119
5971, 298.214055, 363.374877, 1684.491770
5972, 178.109801, 429.995097, 1682.665119
5973, 179.890899, 434.295048, 1684.491770
5974, 180.198067, 435.036616, 1668.069975
5975, 179.000350, 432.145072, 1683.578444
5976, 182.000047, 439.386982, 1669.750675
5977, 219.399043, 410.466740, 1682.665119
5978, 221.593034, 414.571407, 1684.491770
5979, 90.799589, 456.480360, 1682.665119
5980, 91.707585, 461.045164, 1684.491770
5981, 91.864178, 461.832408, 1668.069975
5982, 91.253587, 458.762762, 1683.578444
5983, 92.782819, 466.450733, 1669.750675
5984, 135.105264, 445.382366, 1682.665119
5985, 136.456316, 449.836190, 1684.491770
5986, 0.000000, 465.423339, 1682.665119
5987, 0.000000, 470.077573, 1684.491770
5988, 0.000000, 470.880240, 1668.069975
5989, 0.000000, 467.750456, 1683.578444
5990, 0.000000, 475.589043, 1669.750675
5991, 45.619465, 463.182199, 1682.665119
5992, 46.075659, 467.814021, 1684.491770
5993, 474.731806, 0.000000, 1686.318421
5994, 465.609967, 92.615581, 1686.318421
5995, 472.404689, 0.000000, 1685.405095
5996, 480.297845, 0.000000, 1671.431374
5997, 463.327566, 92.161583, 1685.405095
5998, 471.069057, 93.701461, 1671.431374
5999, 472.445843, 46.531854, 1686.318421
6000, 438.594999, 181.671997, 1686.318421
6001, 436.445023, 180.781448, 1685.405095
6002, 443.737349, 183.802028, 1671.431374
6003, 454.290014, 137.807369, 1686.318421
6004, 394.725071, 263.746860, 1686.318421
6005, 392.790144, 262.453983, 1685.405095
6006, 399.353063, 266.839186, 1671.431374
6007, 418.676075, 223.787024, 1686.318421
6008, 335.686079, 335.686079, 1686.318421
6009, 334.040559, 334.040559, 1685.405095
6010, 339.621863, 339.621863, 1671.431374
6011, 366.972649, 301.166669, 1686.318421
6012, 263.746860, 394.725071, 1686.318421
6013, 262.453983, 392.790144, 1685.405095
6014, 266.839186, 399.353063, 1671.431374
6015, 301.166669, 366.972649, 1686.318421
6016, 181.671997, 438.594999, 1686.318421
6017, 180.781448, 436.445023, 1685.405095
6018, 183.802028, 443.737349, 1671.431374
6019, 223.787024, 418.676075, 1686.318421
6020, 92.615581, 465.609967, 1686.318421
6021, 92.161583, 463.327566, 1685.405095
6022, 93.701461, 471.069057, 1671.431374
6023, 137.807369, 454.290014, 1686.318421
6024, 0.000000, 474.731806, 1686.318421
6025, 0.000000, 472.404689, 1685.405095
6026, 0.000000, 480.297845, 1671.431374
6027, 46.531854, 472.445843, 1686.318421
6028, 479.386039, 0.000000, 1688.145072
6029, 470.174771, 93.523577, 1688.145072
6030, 477.058923, 0.000000, 1687.231747
6031, 485.006647, 0.000000, 1673.112074
6032, 467.892369, 93.069579, 1687.231747
6033, 475.687381, 94.620103, 1673.112074
6034, 477.077665, 46.988049, 1688.145072
6035, 442.894950, 183.453095, 1688.145072
6036, 440.744974, 182.562546, 1687.231747
6037, 448.087715, 185.604009, 1673.112074
6038, 458.743837, 139.158422, 1688.145072
6039, 398.594924, 266.332614, 1688.145072
6040, 396.659997, 265.039737, 1687.231747
6041, 403.268289, 269.455256, 1673.112074
6042, 422.780742, 225.981015, 1688.145072
6043, 338.977119, 338.977119, 1688.145072
6044, 337.331599, 337.331599, 1687.231747
6045, 342.951489, 342.951489, 1673.112074
6046, 370.570420, 304.119284, 1688.145072
6047, 266.332614, 398.594924, 1688.145072
6048, 265.039737, 396.659997, 1687.231747
6049, 269.455256, 403.268289, 1673.112074
6050, 304.119284, 370.570420, 1688.145072
6051, 183.453095, 442.894950, 1688.145072
6052, 182.562546, 440.744974, 1687.231747
6053, 185.604009, 448.087715, 1673.112074
6054, 225.981015, 422.780742, 1688.145072
6055, 93.523577, 470.174771, 1688.145072
6056, 93.069579, 467.892369, 1687.231747
6057, 94.620103, 475.687381, 1673.112074
6058, 139.158422, 458.743837, 1688.145072
6059, 0.000000, 479.386039, 1688.145072
6060, 0.000000, 477.058923, 1687.231747
6061, 0.000000, 485.006647, 1673.112074
6062, 46.988049, 477.077665, 1688.145072
6063, 484.040273, 0.000000, 1689.971723
6064, 474.739575, 94.431573, 1689.971723
6065, 481.713156, 0.000000, 1689.058398
6066, 489.715450, 0.000000, 1674.792774
6067, 472.457173, 93.977575, 1689.058398
6068, 480.305705, 95.538745, 1674.792774
6069, 481.709487, 47.444243, 1689.971723
6070, 447.194901, 185.234193, 1689.971723
6071, 445.044925, 184.343644, 1689.058398
6072, 452.438081, 187.405989, 1674.792774
6073, 463.197661, 140.509474, 1689.971723
6074, 402.464778, 268.918367, 1689.971723
6075, 400.529851, 267.625490, 1689.058398
6076, 407.183515, 272.071327, 1674.792774
6077, 426.885409, 228.175005, 1689.971723
6078, 342.268159, 342.268159, 1689.971723
6079, 340.622639, 340.622639, 1689.058398
6080, 346.281115, 346.281115, 1674.792774
6081, 374.168191, 307.071898, 1689.971723
6082, 268.918367, 402.464778, 1689.971723
6083, 267.625490, 400.529851, 1689.058398
6084, 272.071327, 407.183515, 1674.792774
6085, 307.071898, 374.168191, 1689.971723
6086, 185.234193, 447.194901, 1689.971723
6087, 184.343644, 445.044925, 1689.058398
6088, 187.405989, 452.438081, 1674.792774
6089, 228.175005, 426.885409, 1689.971723
6090, 94.431573, 474.739575, 1689.971723
6091, 93.977575, 472.457173, 1689.058398
6092, 95.538745, 480.305705, 1674.792774
6093, 140.509474, 463.197661, 1689.971723
6094, 0.000000, 484.040273, 1689.971723
6095, 0.000000, 481.713156, 1689.058398
6096, 0.000000, 489.715450, 1674.792774
6097, 47.444243, 481.709487, 1689.971723
6098, 453.153894, 0.000000, 1711.309131
6099, 457.685432, 0.000000, 1713.422222
6100, 444.446669, 88.405939, 1711.309131
6101, 448.891135, 89.289998, 1713.422222
6102, 459.491751, 0.000000, 1697.074075
6103, 455.419663, 0.000000, 1712.365677
6104, 464.086669, 0.000000, 1699.044816
6105, 450.662746, 89.642394, 1697.074075
6106, 446.668902, 88.847969, 1712.365677
6107, 455.169373, 90.538818, 1699.044816
6108, 450.971834, 44.416849, 1711.309131
6109, 455.481552, 44.861017, 1713.422222
6110, 418.659607, 173.414487, 1711.309131
6111, 422.846203, 175.148632, 1713.422222
6112, 424.515024, 175.839880, 1697.074075
6113, 420.752905, 174.281560, 1712.365677
6114, 428.760174, 177.598279, 1699.044816
6115, 433.641239, 131.543632, 1711.309131
6116, 437.977651, 132.859068, 1713.422222
6117, 376.783692, 251.758814, 1711.309131
6118, 380.551529, 254.276402, 1713.422222
6119, 382.053428, 255.279939, 1697.074075
6120, 378.667611, 253.017608, 1712.365677
6121, 385.873962, 257.832739, 1699.044816
6122, 399.646055, 213.615267, 1711.309131
6123, 403.642515, 215.751419, 1713.422222
6124, 320.428191, 320.428191, 1711.309131
6125, 323.632473, 323.632473, 1713.422222
6126, 324.909733, 324.909733, 1697.074075
6127, 322.030332, 322.030332, 1712.365677
6128, 328.158830, 328.158830, 1699.044816
6129, 350.292697, 287.477787, 1711.309131
6130, 353.795624, 290.352565, 1713.422222
6131, 251.758814, 376.783692, 1711.309131
6132, 254.276402, 380.551529, 1713.422222
6133, 255.279939, 382.053428, 1697.074075
6134, 253.017608, 378.667611, 1712.365677
6135, 257.832739, 385.873962, 1699.044816
6136, 287.477787, 350.292697, 1711.309131
6137, 290.352565, 353.795624, 1713.422222
6138, 173.414487, 418.659607, 1711.309131
6139, 175.148632, 422.846203, 1713.422222
6140, 175.839880, 424.515024, 1697.074075
6141, 174.281560, 420.752905, 1712.365677
6142, 177.598279, 428.760174, 1699.044816
6143, 213.615267, 399.646055, 1711.309131
6144, 215.751419, 403.642515, 1713.422222
6145, 88.405939, 444.446669, 1711.309131
6146, 89.289998, 448.891135, 1713.422222
6147, 89.642394, 450.662746, 1697.074075
6148, 88.847969, 446.668902, 1712.365677
6149, 90.538818, 455.169373, 1699.044816
6150, 131.543632, 433.641239, 1711.309131
6151, 132.859068, 437.977651, 1713.422222
6152, 0.000000, 453.153894, 1711.309131
6153, 0.000000, 457.685432, 1713.422222
6154, 0.000000, 459.491751, 1697.074075
6155, 0.000000, 455.419663, 1712.365677
6156, 0.000000, 464.086669, 1699.044816
6157, 44.416849, 450.971834, 1711.309131
6158, 44.861017, 455.481552, 1713.422222
6159, 462.216971, 0.000000, 1715.535313
6160, 453.335602, 90.174058, 1715.535313
6161, 459.951202, 0.000000, 1714.478768
6162, 468.681586, 0.000000, 1701.015557
6163, 451.113369, 89.732028, 1714.478768
6164, 459.676001, 91.435242, 1701.015557
6165, 459.991270, 45.305186, 1715.535313
6166, 427.032799, 176.882777, 1715.535313
6167, 424.939501, 176.015705, 1714.478768
6168, 433.005325, 179.356678, 1701.015557
6169, 442.314064, 134.174504, 1715.535313
6170, 384.319366, 256.793991, 1715.535313
6171, 382.435448, 255.535196, 1714.478768
6172, 389.694497, 260.385538, 1701.015557
6173, 407.638976, 217.887572, 1715.535313
6174, 326.836755, 326.836755, 1715.535313
6175, 325.234614, 325.234614, 1714.478768
6176, 331.407928, 331.407928, 1701.015557
6177, 357.298551, 293.227342, 1715.535313
6178, 256.793991, 384.319366, 1715.535313
6179, 255.535196, 382.435448, 1714.478768
6180, 260.385538, 389.694497, 1701.015557
6181, 293.227342, 357.298551, 1715.535313
6182, 176.882777, 427.032799, 1715.535313
6183, 176.015705, 424.939501, 1714.478768
6184, 179.356678, 433.005325, 1701.015557
6185, 217.887572, 407.638976, 1715.535313
6186, 90.174058, 453.335602, 1715.535313
6187, 89.732028, 451.113369, 1714.478768
6188, 91.435242, 459.676001, 1701.015557
6189, 134.174504, 442.314064, 1715.535313
6190, 0.000000, 462.216971, 1715.535313
6191, 0.000000, 459.951202, 1714.478768
6192, 0.000000, 468.681586, 1701.015557
6193, 45.305186, 459.991270, 1715.535313
6194, 466.748510, 0.000000, 1717.648405
6195, 457.780069, 91.058117, 1717.648405
6196, 464.482741, 0.000000, 1716.591859
6197, 473.276504, 0.000000, 1702.986298
6198, 455.557835, 90.616087, 1716.591859
6199, 464.182628, 92.331665, 1702.986298
6200, 464.500989, 45.749354, 1717.648405
6201, 431.219396, 178.616922, 1717.648405
6202, 429.126097, 177.749850, 1716.591859
6203, 437.250475, 181.115077, 1702.986298
6204, 446.650476, 135.489941, 1717.648405
6205, 388.087203, 259.311579, 1717.648405
6206, 386.203284, 258.052785, 1716.591859
6207, 393.515031, 262.938337, 1702.986298
6208, 411.635436, 220.023725, 1717.648405
6209, 330.041037, 330.041037, 1717.648405
6210, 328.438896, 328.438896, 1716.591859
6211, 334.657025, 334.657025, 1702.986298
6212, 360.801478, 296.102120, 1717.648405
6213, 259.311579, 388.087203, 1717.648405
6214, 258.052785, 386.203284, 1716.591859
6215, 262.938337, 393.515031, 1702.986298
6216, 296.102120, 360.801478, 1717.648405
6217, 178.616922, 431.219396, 1717.648405
6218, 177.749850, 429.126097, 1716.591859
6219, 181.115077, 437.250475, 1702.986298
6220, 220.023725, 411.635436, 1717.648405
6221, 91.058117, 457.780069, 1717.648405
6222, 90.616087, 455.557835, 1716.591859
6223, 92.331665, 464.182628, 1702.986298
6224, 135.489941, 446.650476, 1717.648405
6225, 0.000000, 466.748510, 1717.648405
6226, 0.000000, 464.482741, 1716.591859
6227, 0.000000, 473.276504, 1702.986298
6228, 45.749354, 464.500989, 1717.648405
6229, 471.280049, 0.000000, 1719.761496
6230, 462.224535, 91.942177, 1719.761496
6231, 469.014280, 0.000000, 1718.704950
6232, 477.871421, 0.000000, 1704.957038
6233, 460.002302, 91.500147, 1718.704950
6234, 468.689256, 93.228089, 1704.957038
6235, 469.010707, 46.193523, 1719.761496
6236, 435.405992, 180.351067, 1719.761496
6237, 433.312694, 179.483994, 1718.704950
6238, 441.495625, 182.873476, 1704.957038
6239, 450.986889, 136.805377, 1719.761496
6240, 391.855040, 261.829167, 1719.761496
6241, 389.971121, 260.570373, 1718.704950
6242, 397.335565, 265.491137, 1704.957038
6243, 415.631897, 222.159877, 1719.761496
6244, 333.245319, 333.245319, 1719.761496
6245, 331.643178, 331.643178, 1718.704950
6246, 337.906122, 337.906122, 1704.957038
6247, 364.304405, 298.976898, 1719.761496
6248, 261.829167, 391.855040, 1719.761496
6249, 260.570373, 389.971121, 1718.704950
6250, 265.491137, 397.335565, 1704.957038
6251, 298.976898, 364.304405, 1719.761496
6252, 180.351067, 435.405992, 1719.761496
6253, 179.483994, 433.312694, 1718.704950
6254, 182.873476, 441.495625, 1704.957038
6255, 222.159877, 415.631897, 1719.761496
6256, 91.942177, 462.224535, 1719.761496
6257, 91.500147, 460.002302, 1718.704950
6258, 93.228089, 468.689256, 1704.957038
6259, 136.805377, 450.986889, 1719.761496
6260, 0.000000, 471.280049, 1719.761496
6261, 0.000000, 469.014280, 1718.704950
6262, 0.000000, 477.871421, 1704.957038
6263, 46.193523, 469.010707, 1719.761496
6264, 439.097955, 0.000000, 1739.120088
6265, 443.488934, 0.000000, 1741.511289
6266, 430.660811, 85.663761, 1739.120088
6267, 434.967419, 86.520399, 1741.511289
6268, 446.323105, 0.000000, 1725.314329
6269, 441.293445, 0.000000, 1740.315688
6270, 450.786336, 0.000000, 1727.567472
6271, 437.747131, 87.073318, 1725.314329
6272, 432.814115, 86.092080, 1740.315688
6273, 442.124603, 87.944051, 1727.567472
6274, 436.983578, 43.039126, 1739.120088
6275, 441.353414, 43.469517, 1741.511289
6276, 405.673613, 168.035512, 1739.120088
6277, 409.730349, 169.715868, 1741.511289
6278, 412.348781, 170.800458, 1725.314329
6279, 407.701981, 168.875690, 1740.315688
6280, 416.472269, 172.508462, 1727.567472
6281, 420.190544, 127.463408, 1739.120088
6282, 424.392450, 128.738042, 1741.511289
6283, 365.096606, 243.949753, 1739.120088
6284, 368.747572, 246.389251, 1741.511289
6285, 371.104099, 247.963831, 1725.314329
6286, 366.922089, 245.169502, 1740.315688
6287, 374.815140, 250.443470, 1727.567472
6288, 387.249823, 206.989343, 1739.120088
6289, 391.122322, 209.059236, 1741.511289
6290, 310.489141, 310.489141, 1739.120088
6291, 313.594033, 313.594033, 1741.511289
6292, 315.598094, 315.598094, 1725.314329
6293, 312.041587, 312.041587, 1740.315688
6294, 318.754075, 318.754075, 1727.567472
6295, 339.427309, 278.560794, 1739.120088
6296, 342.821582, 281.346402, 1741.511289
6297, 243.949753, 365.096606, 1739.120088
6298, 246.389251, 368.747572, 1741.511289
6299, 247.963831, 371.104099, 1725.314329
6300, 245.169502, 366.922089, 1740.315688
6301, 250.443470, 374.815140, 1727.567472
6302, 278.560794, 339.427309, 1739.120088
6303, 281.346402, 342.821582, 1741.511289
6304, 168.035512, 405.673613, 1739.120088
6305, 169.715868, 409.730349, 1741.511289
6306, 170.800458, 412.348781, 1725.314329
6307, 168.875690, 407.701981, 1740.315688
6308, 172.508462, 416.472269, 1727.567472
6309, 206.989343, 387.249823, 1739.120088
6310, 209.059236, 391.122322, 1741.511289
6311, 85.663761, 430.660811, 1739.120088
6312, 86.520399, 434.967419, 1741.511289
6313, 87.073318, 437.747131, 1725.314329
6314, 86.092080, 432.814115, 1740.315688
6315, 87.944051, 442.124603, 1727.567472
6316, 127.463408, 420.190544, 1739.120088
6317, 128.738042, 424.392450, 1741.511289
6318, 0.000000, 439.097955, 1739.120088
6319, 0.000000, 443.488934, 1741.511289
6320, 0.000000, 446.323105, 1725.314329
6321, 0.000000, 441.293445, 1740.315688
6322, 0.000000, 450.786336, 1727.567472
6323, 43.039126, 436.983578, 1739.120088
6324, 43.469517, 441.353414, 1741.511289
6325, 447.879914, 0.000000, 1743.902489
6326, 439.274027, 87.377037, 1743.902489
6327, 445.684424, 0.000000, 1742.706889
6328, 455.249567, 0.000000, 1729.820615
6329, 437.120723, 86.948718, 1742.706889
6330, 446.502074, 88.814785, 1729.820615
6331, 445.723250, 43.899908, 1743.902489
6332, 413.787085, 171.396223, 1743.902489
6333, 411.758717, 170.556045, 1742.706889
6334, 420.595757, 174.216467, 1729.820615
6335, 428.594355, 130.012676, 1743.902489
6336, 372.398538, 248.828748, 1743.902489
6337, 370.573055, 247.608999, 1742.706889
6338, 378.526181, 252.923108, 1729.820615
6339, 394.994820, 211.129130, 1743.902489
6340, 316.698924, 316.698924, 1743.902489
6341, 315.146479, 315.146479, 1742.706889
6342, 321.910056, 321.910056, 1729.820615
6343, 346.215855, 284.132009, 1743.902489
6344, 248.828748, 372.398538, 1743.902489
6345, 247.608999, 370.573055, 1742.706889
6346, 252.923108, 378.526181, 1729.820615
6347, 284.132009, 346.215855, 1743.902489
6348, 171.396223, 413.787085, 1743.902489
6349, 170.556045, 411.758717, 1742.706889
6350, 174.216467, 420.595757, 1729.820615
6351, 211.129130, 394.994820, 1743.902489
6352, 87.377037, 439.274027, 1743.902489
6353, 86.948718, 437.120723, 1742.706889
6354, 88.814785, 446.502074, 1729.820615
6355, 130.012676, 428.594355, 1743.902489
6356, 0.000000, 447.879914, 1743.902489
6357, 0.000000, 445.684424, 1742.706889
6358, 0.000000, 455.249567, 1729.820615
6359, 43.899908, 445.723250, 1743.902489
6360, 452.270893, 0.000000, 1746.293690
6361, 443.580635, 88.233674, 1746.293690
6362, 450.075404, 0.000000, 1745.098090
6363, 459.712798, 0.000000, 1732.073758
6364, 441.427331, 87.805355, 1745.098090
6365, 450.879545, 89.685518, 1732.073758
6366, 450.093085, 44.330300, 1746.293690
6367, 417.843822, 173.076578, 1746.293690
6368, 415.815454, 172.236400, 1745.098090
6369, 424.719245, 175.924471, 1732.073758
6370, 432.796261, 131.287310, 1746.293690
6371, 376.049504, 251.268246, 1746.293690
6372, 374.224021, 250.048497, 1745.098090
6373, 382.237222, 255.402746, 1732.073758
6374, 398.867318, 213.199023, 1746.293690
6375, 319.803816, 319.803816, 1746.293690
6376, 318.251370, 318.251370, 1745.098090
6377, 325.066037, 325.066037, 1732.073758
6378, 349.610128, 286.917617, 1746.293690
6379, 251.268246, 376.049504, 1746.293690
6380, 250.048497, 374.224021, 1745.098090
6381, 255.402746, 382.237222, 1732.073758
6382, 286.917617, 349.610128, 1746.293690
6383, 173.076578, 417.843822, 1746.293690
6384, 172.236400, 415.815454, 1745.098090
6385, 175.924471, 424.719245, 1732.073758
6386, 213.199023, 398.867318, 1746.293690
6387, 88.233674, 443.580635, 1746.293690
6388, 87.805355, 441.427331, 1745.098090
6389, 89.685518, 450.879545, 1732.073758
6390, 131.287310, 432.796261, 1746.293690
6391, 0.000000, 452.270893, 1746.293690
6392, 0.000000, 450.075404, 1745.098090
6393, 0.000000, 459.712798, 1732.073758
6394, 44.330300, 450.093085, 1746.293690
6395, 456.661873, 0.000000, 1748.684891
6396, 447.887243, 89.090312, 1748.684891
6397, 454.466383, 0.000000, 1747.489291
6398, 464.176029, 0.000000, 1734.326902
6399, 445.733939, 88.661993, 1747.489291
6400, 455.257017, 90.556251, 1734.326902
6401, 454.462921, 44.760691, 1748.684891
6402, 421.900558, 174.756933, 1748.684891
6403, 419.872190, 173.916755, 1747.489291
6404, 428.842733, 177.632476, 1734.326902
6405, 436.998166, 132.561944, 1748.684891
6406, 379.700471, 253.707743, 1748.684891
6407, 377.874987, 252.487994, 1747.489291
6408, 385.948263, 257.882385, 1734.326902
6409, 402.739816, 215.268917, 1748.684891
6410, 322.908707, 322.908707, 1748.684891
6411, 321.356261, 321.356261, 1747.489291
6412, 328.222018, 328.222018, 1734.326902
6413, 353.004401, 289.703225, 1748.684891
6414, 253.707743, 379.700471, 1748.684891
6415, 252.487994, 377.874987, 1747.489291
6416, 257.882385, 385.948263, 1734.326902
6417, 289.703225, 353.004401, 1748.684891
6418, 174.756933, 421.900558, 1748.684891
6419, 173.916755, 419.872190, 1747.489291
6420, 177.632476, 428.842733, 1734.326902
6421, 215.268917, 402.739816, 1748.684891
6422, 89.090312, 447.887243, 1748.684891
6423, 88.661993, 445.733939, 1747.489291
6424, 90.556251, 455.257017, 1734.326902
6425, 132.561944, 436.998166, 1748.684891
6426, 0.000000, 456.661873, 1748.684891
6427, 0.000000, 454.466383, 1747.489291
6428, 0.000000, 464.176029, 1734.326902
6429, 44.760691, 454.462921, 1748.684891
6430, 423.341498, 0.000000, 1766.003183
6431, 427.574913, 0.000000, 1768.663215
6432, 415.207110, 82.589829, 1766.003183
6433, 419.359181, 83.415727, 1768.663215
6434, 431.425054, 0.000000, 1752.681894
6435, 425.458205, 0.000000, 1767.333199
6436, 435.739305, 0.000000, 1755.208713
6437, 423.135343, 84.166853, 1752.681894
6438, 417.283145, 83.002778, 1767.333199
6439, 427.366696, 85.008521, 1755.208713
6440, 421.302993, 41.494723, 1766.003183
6441, 425.516023, 41.909670, 1768.663215
6442, 391.116545, 162.005777, 1766.003183
6443, 395.027711, 163.625835, 1768.663215
6444, 398.584777, 165.099221, 1752.681894
6445, 393.072128, 162.815806, 1767.333199
6446, 402.570625, 166.750213, 1755.208713
6447, 405.112555, 122.889550, 1766.003183
6448, 409.163681, 124.118446, 1768.663215
6449, 351.995591, 235.195935, 1766.003183
6450, 355.515547, 237.547894, 1768.663215
6451, 358.716823, 239.686918, 1752.681894
6452, 353.755569, 236.371914, 1767.333199
6453, 362.303991, 242.083787, 1755.208713
6454, 373.353869, 199.561801, 1766.003183
6455, 377.087408, 201.557419, 1768.663215
6456, 299.347644, 299.347644, 1766.003183
6457, 302.341120, 302.341120, 1768.663215
6458, 305.063581, 305.063581, 1752.681894
6459, 300.844382, 300.844382, 1767.333199
6460, 308.114217, 308.114217, 1755.208713
6461, 327.247403, 268.565003, 1766.003183
6462, 330.519877, 271.250653, 1768.663215
6463, 235.195935, 351.995591, 1766.003183
6464, 237.547894, 355.515547, 1768.663215
6465, 239.686918, 358.716823, 1752.681894
6466, 236.371914, 353.755569, 1767.333199
6467, 242.083787, 362.303991, 1755.208713
6468, 268.565003, 327.247403, 1766.003183
6469, 271.250653, 330.519877, 1768.663215
6470, 162.005777, 391.116545, 1766.003183
6471, 163.625835, 395.027711, 1768.663215
6472, 165.099221, 398.584777, 1752.681894
6473, 162.815806, 393.072128, 1767.333199
6474, 166.750213, 402.570625, 1755.208713
6475, 199.561801, 373.353869, 1766.003183
6476, 201.557419, 377.087408, 1768.663215
6477, 82.589829, 415.207110, 1766.003183
6478, 83.415727, 419.359181, 1768.663215
6479, 84.166853, 423.135343, 1752.681894
6480, 83.002778, 417.283145, 1767.333199
6481, 85.008521, 427.366696, 1755.208713
6482, 122.889550, 405.112555, 1766.003183
6483, 124.118446, 409.163681, 1768.663215
6484, 0.000000, 423.341498, 1766.003183
6485, 0.000000, 427.574913, 1768.663215
6486, 0.000000, 431.425054, 1752.681894
6487, 0.000000, 425.458205, 1767.333199
6488, 0.000000, 435.739305, 1755.208713
6489, 41.494723, 421.302993, 1766.003183
6490, 41.909670, 425.516023, 1768.663215
6491, 431.808328, 0.000000, 1771.323246
6492, 423.511252, 84.241626, 1771.323246
6493, 429.691620, 0.000000, 1769.993230
6494, 440.053555, 0.000000, 1757.735532
6495, 421.435216, 83.828677, 1769.993230
6496, 431.598050, 85.850190, 1757.735532
6497, 429.729053, 42.324617, 1771.323246
6498, 398.938876, 165.245893, 1771.323246
6499, 396.983293, 164.435864, 1769.993230
6500, 406.556473, 168.401205, 1757.735532
6501, 413.214806, 125.347341, 1771.323246
6502, 359.035503, 239.899853, 1771.323246
6503, 357.275525, 238.723874, 1769.993230
6504, 365.891159, 244.480656, 1757.735532
6505, 380.820946, 203.553037, 1771.323246
6506, 305.334597, 305.334597, 1771.323246
6507, 303.837859, 303.837859, 1769.993230
6508, 311.164853, 311.164853, 1757.735532
6509, 333.792351, 273.936303, 1771.323246
6510, 239.899853, 359.035503, 1771.323246
6511, 238.723874, 357.275525, 1769.993230
6512, 244.480656, 365.891159, 1757.735532
6513, 273.936303, 333.792351, 1771.323246
6514, 165.245893, 398.938876, 1771.323246
6515, 164.435864, 396.983293, 1769.993230
6516, 168.401205, 406.556473, 1757.735532
6517, 203.553037, 380.820946, 1771.323246
6518, 84.241626, 423.511252, 1771.323246
6519, 83.828677, 421.435216, 1769.993230
6520, 85.850190, 431.598050, 1757.735532
6521, 125.347341, 413.214806, 1771.323246
6522, 0.000000, 431.808328, 1771.323246
6523, 0.000000, 429.691620, 1769.993230
6524, 0.000000, 440.053555, 1757.735532
6525, 42.324617, 429.729053, 1771.323246
6526, 436.041743, 0.000000, 1773.983278
6527, 427.663323, 85.067524, 1773.983278
6528, 433.925035, 0.000000, 1772.653262
6529, 444.367806, 0.000000, 1760.262351
6530, 425.587287, 84.654575, 1772.653262
6531, 435.829403, 86.691858, 1760.262351
6532, 433.942083, 42.739565, 1773.983278
6533, 402.850042, 166.865951, 1773.983278
6534, 400.894459, 166.055922, 1772.653262
6535, 410.542321, 170.052197, 1760.262351
6536, 417.265932, 126.576237, 1773.983278
6537, 362.555459, 242.251813, 1773.983278
6538, 360.795481, 241.075833, 1772.653262
6539, 369.478327, 246.877525, 1760.262351
6540, 384.554485, 205.548655, 1773.983278
6541, 308.328073, 308.328073, 1773.983278
6542, 306.831335, 306.831335, 1772.653262
6543, 314.215489, 314.215489, 1760.262351
6544, 337.064825, 276.621953, 1773.983278
6545, 242.251813, 362.555459, 1773.983278
6546, 241.075833, 360.795481, 1772.653262
6547, 246.877525, 369.478327, 1760.262351
6548, 276.621953, 337.064825, 1773.983278
6549, 166.865951, 402.850042, 1773.983278
6550, 166.055922, 400.894459, 1772.653262
6551, 170.052197, 410.542321, 1760.262351
6552, 205.548655, 384.554485, 1773.983278
6553, 85.067524, 427.663323, 1773.983278
6554, 84.654575, 425.587287, 1772.653262
6555, 86.691858, 435.829403, 1760.262351
6556, 126.576237, 417.265932, 1773.983278
6557, 0.000000, 436.041743, 1773.983278
6558, 0.000000, 433.925035, 1772.653262
6559, 0.000000, 444.367806, 1760.262351
6560, 42.739565, 433.942083, 1773.983278
6561, 440.275158, 0.000000, 1776.643310
6562, 431.815394, 85.893422, 1776.643310
6563, 438.158450, 0.000000, 1775.313294
6564, 448.682056, 0.000000, 1762.789170
6565, 429.739359, 85.480473, 1775.313294
6566, 440.060757, 87.533527, 1762.789170
6567, 438.155113, 43.154512, 1776.643310
6568, 406.761207, 168.486009, 1776.643310
6569, 404.805624, 167.675980, 1775.313294
6570, 414.528169, 171.703189, 1762.789170
6571, 421.317057, 127.805132, 1776.643310
6572, 366.075415, 244.603772, 1776.643310
6573, 364.315437, 243.427792, 1775.313294
6574, 373.065496, 249.274395, 1762.789170
6575, 388.288024, 207.544273, 1776.643310
6576, 311.321550, 311.321550, 1776.643310
6577, 309.824811, 309.824811, 1775.313294
6578, 317.266125, 317.266125, 1762.789170
6579, 340.337299, 279.307603, 1776.643310
6580, 244.603772, 366.075415, 1776.643310
6581, 243.427792, 364.315437, 1775.313294
6582, 249.274395, 373.065496, 1762.789170
6583, 279.307603, 340.337299, 1776.643310
6584, 168.486009, 406.761207, 1776.643310
6585, 167.675980, 404.805624, 1775.313294
6586, 171.703189, 414.528169, 1762.789170
6587, 207.544273, 388.288024, 1776.643310
6588, 85.893422, 431.815394, 1776.643310
6589, 85.480473, 429.739359, 1775.313294
6590, 87.533527, 440.060757, 1762.789170
6591, 127.805132, 421.317057, 1776.643310
6592, 0.000000, 440.275158, 1776.643310
6593, 0.000000, 438.158450, 1775.313294
6594, 0.000000, 448.682056, 1762.789170
6595, 43.154512, 438.155113, 1776.643310
6596, 405.945325, 0.000000, 1791.854850
6597, 410.004778, 0.000000, 1794.773399
6598, 398.145199, 79.196004, 1791.854850
6599, 402.126651, 79.987964, 1794.773399
6600, 414.854980, 0.000000, 1779.071274
6601, 407.975052, 0.000000, 1793.314124
6602, 419.003530, 0.000000, 1781.861987
6603, 406.883658, 80.934192, 1779.071274
6604, 400.135925, 79.591984, 1793.314124
6605, 410.952494, 81.743534, 1781.861987
6606, 403.990587, 39.789600, 1791.854850
6607, 408.030493, 40.187496, 1794.773399
6608, 375.044577, 155.348550, 1791.854850
6609, 378.795023, 156.902036, 1794.773399
6610, 383.276025, 158.758128, 1779.071274
6611, 376.919800, 156.125293, 1793.314124
6612, 387.108785, 160.345709, 1781.861987
6613, 388.465456, 117.839708, 1791.854850
6614, 392.350110, 119.018105, 1794.773399
6615, 337.531202, 225.531139, 1791.854850
6616, 340.906514, 227.786450, 1794.773399
6617, 344.939309, 230.481078, 1779.071274
6618, 339.218858, 226.658794, 1793.314124
6619, 348.388702, 232.785889, 1781.861987
6620, 358.011814, 191.361302, 1791.854850
6621, 361.591932, 193.274915, 1794.773399
6622, 287.046692, 287.046692, 1791.854850
6623, 289.917159, 289.917159, 1794.773399
6624, 293.346769, 293.346769, 1779.071274
6625, 288.481926, 288.481926, 1793.314124
6626, 296.280237, 296.280237, 1781.861987
6627, 313.799980, 257.528988, 1791.854850
6628, 316.937980, 260.104278, 1794.773399
6629, 225.531139, 337.531202, 1791.854850
6630, 227.786450, 340.906514, 1794.773399
6631, 230.481078, 344.939309, 1779.071274
6632, 226.658794, 339.218858, 1793.314124
6633, 232.785889, 348.388702, 1781.861987
6634, 257.528988, 313.799980, 1791.854850
6635, 260.104278, 316.937980, 1794.773399
6636, 155.348550, 375.044577, 1791.854850
6637, 156.902036, 378.795023, 1794.773399
6638, 158.758128, 383.276025, 1779.071274
6639, 156.125293, 376.919800, 1793.314124
6640, 160.345709, 387.108785, 1781.861987
6641, 191.361302, 358.011814, 1791.854850
6642, 193.274915, 361.591932, 1794.773399
6643, 79.196004, 398.145199, 1791.854850
6644, 79.987964, 402.126651, 1794.773399
6645, 80.934192, 406.883658, 1779.071274
6646, 79.591984, 400.135925, 1793.314124
6647, 81.743534, 410.952494, 1781.861987
6648, 117.839708, 388.465456, 1791.854850
6649, 119.018105, 392.350110, 1794.773399
6650, 0.000000, 405.945325, 1791.854850
6651, 0.000000, 410.004778, 1794.773399
6652, 0.000000, 414.854980, 1779.071274
6653, 0.000000, 407.975052, 1793.314124
6654, 0.000000, 419.003530, 1781.861987
6655, 39.789600, 403.990587, 1791.854850
6656, 40.187496, 408.030493, 1794.773399
6657, 414.064231, 0.000000, 1797.691947
6658, 406.108103, 80.779924, 1797.691947
6659, 412.034505, 0.000000, 1796.232673
6660, 423.152079, 0.000000, 1784.652699
6661, 404.117377, 80.383944, 1796.232673
6662, 415.021331, 82.552875, 1784.652699
6663, 412.070399, 40.585392, 1797.691947
6664, 382.545469, 158.455521, 1797.691947
6665, 380.670246, 157.678779, 1796.232673
6666, 390.941545, 161.933290, 1784.652699
6667, 396.234765, 120.196502, 1797.691947
6668, 344.281826, 230.041762, 1797.691947
6669, 342.594170, 228.914106, 1796.232673
6670, 351.838095, 235.090699, 1784.652699
6671, 365.172051, 195.188528, 1797.691947
6672, 292.787626, 292.787626, 1797.691947
6673, 291.352392, 291.352392, 1796.232673
6674, 299.213705, 299.213705, 1784.652699
6675, 320.075979, 262.679568, 1797.691947
6676, 230.041762, 344.281826, 1797.691947
6677, 228.914106, 342.594170, 1796.232673
6678, 235.090699, 351.838095, 1784.652699
6679, 262.679568, 320.075979, 1797.691947
6680, 158.455521, 382.545469, 1797.691947
6681, 157.678779, 380.670246, 1796.232673
6682, 161.933290, 390.941545, 1784.652699
6683, 195.188528, 365.172051, 1797.691947
6684, 80.779924, 406.108103, 1797.691947
6685, 80.383944, 404.117377, 1796.232673
6686, 82.552875, 415.021331, 1784.652699
6687, 120.196502, 396.234765, 1797.691947
6688, 0.000000, 414.064231, 1797.691947
6689, 0.000000, 412.034505, 1796.232673
6690, 0.000000, 423.152079, 1784.652699
6691, 40.585392, 412.070399, 1797.691947
6692, 418.123685, 0.000000, 1800.610496
6693, 410.089555, 81.571884, 1800.610496
6694, 416.093958, 0.000000, 1799.151221
6695, 427.300629, 0.000000, 1787.443412
6696, 408.098829, 81.175904, 1799.151221
6697, 419.090167, 83.362217, 1787.443412
6698, 416.110305, 40.983288, 1800.610496
6699, 386.295914, 160.009007, 1800.610496
6700, 384.420692, 159.232264, 1799.151221
6701, 394.774306, 163.520871, 1787.443412
6702, 400.119419, 121.374899, 1800.610496
6703, 347.657138, 232.297073, 1800.610496
6704, 345.969482, 231.169417, 1799.151221
6705, 355.287489, 237.395510, 1787.443412
6706, 368.752169, 197.102141, 1800.610496
6707, 295.658093, 295.658093, 1800.610496
6708, 294.222859, 294.222859, 1799.151221
6709, 302.147173, 302.147173, 1787.443412
6710, 323.213979, 265.254858, 1800.610496
6711, 232.297073, 347.657138, 1800.610496
6712, 231.169417, 345.969482, 1799.151221
6713, 237.395510, 355.287489, 1787.443412
6714, 265.254858, 323.213979, 1800.610496
6715, 160.009007, 386.295914, 1800.610496
6716, 159.232264, 384.420692, 1799.151221
6717, 163.520871, 394.774306, 1787.443412
6718, 197.102141, 368.752169, 1800.610496
6719, 81.571884, 410.089555, 1800.610496
6720, 81.175904, 408.098829, 1799.151221
6721, 83.362217, 419.090167, 1787.443412
6722, 121.374899, 400.119419, 1800.610496
6723, 0.000000, 418.123685, 1800.610496
6724, 0.000000, 416.093958, 1799.151221
6725, 0.000000, 427.300629, 1787.443412
6726, 40.983288, 416.110305, 1800.610496
6727, 422.183138, 0.000000, 1803.529044
6728, 414.071007, 82.363844, 1803.529044
6729, 420.153411, 0.000000, 1802.069770
6730, 431.449179, 0.000000, 1790.234125
6731, 412.080281, 81.967864, 1802.069770
6732, 423.159004, 84.171559, 1790.234125
6733, 420.150211, 41.381184, 1803.529044
6734, 390.046360, 161.562492, 1803.529044
6735, 388.171137, 160.785750, 1802.069770
6736, 398.607066, 165.108453, 1790.234125
6737, 404.004074, 122.553296, 1803.529044
6738, 351.032450, 234.552384, 1803.529044
6739, 349.344794, 233.424729, 1802.069770
6740, 358.736882, 239.700321, 1790.234125
6741, 372.332287, 199.015754, 1803.529044
6742, 298.528560, 298.528560, 1803.529044
6743, 297.093326, 297.093326, 1802.069770
6744, 305.080640, 305.080640, 1790.234125
6745, 326.351979, 267.830147, 1803.529044
6746, 234.552384, 351.032450, 1803.529044
6747, 233.424729, 349.344794, 1802.069770
6748, 239.700321, 358.736882, 1790.234125
6749, 267.830147, 326.351979, 1803.529044
6750, 161.562492, 390.046360, 1803.529044
6751, 160.785750, 388.171137, 1802.069770
6752, 165.108453, 398.607066, 1790.234125
6753, 199.015754, 372.332287, 1803.529044
6754, 82.363844, 414.071007, 1803.529044
6755, 81.967864, 412.080281, 1802.069770
6756, 84.171559, 423.159004, 1790.234125
6757, 122.553296, 404.004074, 1803.529044
6758, 0.000000, 422.183138, 1803.529044
6759, 0.000000, 420.153411, 1802.069770
6760, 0.000000, 431.449179, 1790.234125
6761, 41.381184, 420.150211, 1803.529044
6762, 386.976519, 0.000000, 1816.575480
6763, 390.846284, 0.000000, 1819.741235
6764, 379.540873, 75.495374, 1816.575480
6765, 383.336282, 76.250327, 1819.741235
6766, 396.676670, 0.000000, 1804.380715
6767, 388.911401, 0.000000, 1818.158357
6768, 400.643437, 0.000000, 1807.424522
6769, 389.054639, 77.387779, 1804.380715
6770, 381.438578, 75.872851, 1818.158357
6771, 392.945186, 78.161657, 1807.424522
6772, 385.113121, 37.930332, 1816.575480
6773, 388.964252, 38.309635, 1819.741235
6774, 357.519685, 148.089502, 1816.575480
6775, 361.094882, 149.570397, 1819.741235
6776, 366.481457, 151.801590, 1804.380715
6777, 359.307284, 148.829950, 1818.158357
6778, 370.146271, 153.319606, 1807.424522
6779, 370.313440, 112.333354, 1816.575480
6780, 374.016574, 113.456687, 1819.741235
6781, 321.759216, 214.992635, 1816.575480
6782, 324.976808, 217.142561, 1819.741235
6783, 329.824597, 220.381750, 1804.380715
6784, 323.368012, 216.067598, 1818.158357
6785, 333.122843, 222.585568, 1807.424522
6786, 341.282821, 182.419468, 1816.575480
6787, 344.695649, 184.243663, 1819.741235
6788, 273.633721, 273.633721, 1816.575480
6789, 276.370058, 276.370058, 1819.741235
6790, 280.492763, 280.492763, 1804.380715
6791, 275.001889, 275.001889, 1818.158357
6792, 283.297691, 283.297691, 1807.424522
6793, 299.136894, 245.495305, 1816.575480
6794, 302.128263, 247.950258, 1819.741235
6795, 214.992635, 321.759216, 1816.575480
6796, 217.142561, 324.976808, 1819.741235
6797, 220.381750, 329.824597, 1804.380715
6798, 216.067598, 323.368012, 1818.158357
6799, 222.585568, 333.122843, 1807.424522
6800, 245.495305, 299.136894, 1816.575480
6801, 247.950258, 302.128263, 1819.741235
6802, 148.089502, 357.519685, 1816.575480
6803, 149.570397, 361.094882, 1819.741235
6804, 151.801590, 366.481457, 1804.380715
6805, 148.829950, 359.307284, 1818.158357
6806, 153.319606, 370.146271, 1807.424522
6807, 182.419468, 341.282821, 1816.575480
6808, 184.243663, 344.695649, 1819.741235
6809, 75.495374, 379.540873, 1816.575480
6810, 76.250327, 383.336282, 1819.741235
6811, 77.387779, 389.054639, 1804.380715
6812, 75.872851, 381.438578, 1818.158357
6813, 78.161657, 392.945186, 1807.424522
6814, 112.333354, 370.313440, 1816.575480
6815, 113.456687, 374.016574, 1819.741235
6816, 0.000000, 386.976519, 1816.575480
6817, 0.000000, 390.846284, 1819.741235
6818, 0.000000, 396.676670, 1804.380715
6819, 0.000000, 388.911401, 1818.158357
6820, 0.000000, 400.643437, 1807.424522
6821, 37.930332, 385.113121, 1816.575480
6822, 38.309635, 388.964252, 1819.741235
6823, 394.716049, 0.000000, 1822.906989
6824, 387.131691, 77.005281, 1822.906989
6825, 392.781166, 0.000000, 1821.324112
6826, 404.610204, 0.000000, 1810.468329
6827, 385.233986, 76.627804, 1821.324112
6828, 396.835732, 78.935535, 1810.468329
6829, 392.815383, 38.688938, 1822.906989
6830, 364.670079, 151.051292, 1822.906989
6831, 362.882480, 150.310845, 1821.324112
6832, 373.811086, 154.837621, 1810.468329
6833, 377.719709, 114.580021, 1822.906989
6834, 328.194400, 219.292487, 1822.906989
6835, 326.585604, 218.217524, 1821.324112
6836, 336.421089, 224.789385, 1810.468329
6837, 348.108477, 186.067858, 1822.906989
6838, 279.106395, 279.106395, 1822.906989
6839, 277.738226, 277.738226, 1821.324112
6840, 286.102619, 286.102619, 1810.468329
6841, 305.119632, 250.405211, 1822.906989
6842, 219.292487, 328.194400, 1822.906989
6843, 218.217524, 326.585604, 1821.324112
6844, 224.789385, 336.421089, 1810.468329
6845, 250.405211, 305.119632, 1822.906989
6846, 151.051292, 364.670079, 1822.906989
6847, 150.310845, 362.882480, 1821.324112
6848, 154.837621, 373.811086, 1810.468329
6849, 186.067858, 348.108477, 1822.906989
6850, 77.005281, 387.131691, 1822.906989
6851, 76.627804, 385.233986, 1821.324112
6852, 78.935535, 396.835732, 1810.468329
6853, 114.580021, 377.719709, 1822.906989
6854, 0.000000, 394.716049, 1822.906989
6855, 0.000000, 392.781166, 1821.324112
6856, 0.000000, 404.610204, 1810.468329
6857, 38.688938, 392.815383, 1822.906989
6858, 398.585814, 0.000000, 1826.072744
6859, 390.927100, 77.760235, 1826.072744
6860, 396.650932, 0.000000, 1824.489867
6861, 408.576970, 0.000000, 1813.512136
6862, 389.029395, 77.382758, 1824.489867
6863, 400.726278, 79.709413, 1813.512136
6864, 396.666515, 39.068242, 1826.072744
6865, 368.245276, 152.532187, 1826.072744
6866, 366.457677, 151.791740, 1824.489867
6867, 377.475900, 156.355637, 1813.512136
6868, 381.422843, 115.703354, 1826.072744
6869, 331.411992, 221.442414, 1826.072744
6870, 329.803196, 220.367451, 1824.489867
6871, 339.719335, 226.993203, 1813.512136
6872, 351.521305, 187.892052, 1826.072744
6873, 281.842732, 281.842732, 1826.072744
6874, 280.474564, 280.474564, 1824.489867
6875, 288.907546, 288.907546, 1813.512136
6876, 308.111001, 252.860164, 1826.072744
6877, 221.442414, 331.411992, 1826.072744
6878, 220.367451, 329.803196, 1824.489867
6879, 226.993203, 339.719335, 1813.512136
6880, 252.860164, 308.111001, 1826.072744
6881, 152.532187, 368.245276, 1826.072744
6882, 151.791740, 366.457677, 1824.489867
6883, 156.355637, 377.475900, 1813.512136
6884, 187.892052, 351.521305, 1826.072744
6885, 77.760235, 390.927100, 1826.072744
6886, 77.382758, 389.029395, 1824.489867
6887, 79.709413, 400.726278, 1813.512136
6888, 115.703354, 381.422843, 1826.072744
6889, 0.000000, 398.585814, 1826.072744
6890, 0.000000, 396.650932, 1824.489867
6891, 0.000000, 408.576970, 1813.512136
6892, 39.068242, 396.666515, 1826.072744
6893, 402.455579, 0.000000, 1829.238499
6894, 394.722508, 78.515189, 1829.238499
6895, 400.520697, 0.000000, 1827.655622
6896, 412.543737, 0.000000, 1816.555943
6897, 392.824804, 78.137712, 1827.655622
6898, 404.616825, 80.483290, 1816.555943
6899, 400.517646, 39.447545, 1829.238499
6900, 371.820473, 154.013083, 1829.238499
6901, 370.032874, 153.272635, 1827.655622
6902, 381.140715, 157.873653, 1816.555943
6903, 385.125977, 116.826688, 1829.238499
6904, 334.629585, 223.592340, 1829.238499
6905, 333.020789, 222.517377, 1827.655622
6906, 343.017581, 229.197020, 1816.555943
6907, 354.934133, 189.716247, 1829.238499
6908, 284.579069, 284.579069, 1829.238499
6909, 283.210901, 283.210901, 1827.655622
6910, 291.712474, 291.712474, 1816.555943
6911, 311.102370, 255.315117, 1829.238499
6912, 223.592340, 334.629585, 1829.238499
6913, 222.517377, 333.020789, 1827.655622
6914, 229.197020, 343.017581, 1816.555943
6915, 255.315117, 311.102370, 1829.238499
6916, 154.013083, 371.820473, 1829.238499
6917, 153.272635, 370.032874, 1827.655622
6918, 157.873653, 381.140715, 1816.555943
6919, 189.716247, 354.934133, 1829.238499
6920, 78.515189, 394.722508, 1829.238499
6921, 78.137712, 392.824804, 1827.655622
6922, 80.483290, 404.616825, 1816.555943
6923, 116.826688, 385.125977, 1829.238499
6924, 0.000000, 402.455579, 1829.238499
6925, 0.000000, 400.520697, 1827.655622
6926, 0.000000, 412.543737, 1816.555943
6927, 39.447545, 400.517646, 1829.238499
6928, 366.508186, 0.000000, 1840.069796
6929, 370.173268, 0.000000, 1843.470494
6930, 359.465834, 71.502200, 1840.069796
6931, 363.060493, 72.217222, 1843.470494
6932, 376.934521, 0.000000, 1828.490179
6933, 368.340727, 0.000000, 1841.770145
6934, 380.703866, 0.000000, 1831.775080
6935, 369.691829, 73.536277, 1828.490179
6936, 361.263163, 71.859711, 1841.770145
6937, 373.388748, 74.271640, 1831.775080
6938, 364.743349, 35.924084, 1840.069796
6939, 368.390783, 36.283325, 1843.470494
6940, 338.609412, 140.256611, 1840.069796
6941, 341.995506, 141.659177, 1843.470494
6942, 348.242089, 144.246596, 1828.490179
6943, 340.302459, 140.957894, 1841.770145
6944, 351.724510, 145.689062, 1831.775080
6945, 350.726467, 106.391711, 1840.069796
6946, 354.233732, 107.455628, 1843.470494
6947, 304.740420, 203.621038, 1840.069796
6948, 307.787824, 205.657249, 1843.470494
6949, 313.409600, 209.413599, 1828.490179
6950, 306.264122, 204.639144, 1841.770145
6951, 316.543696, 211.507735, 1831.775080
6952, 323.231363, 172.770763, 1840.069796
6953, 326.463677, 174.498471, 1843.470494
6954, 259.160424, 259.160424, 1840.069796
6955, 261.752028, 261.752028, 1843.470494
6956, 266.532956, 266.532956, 1828.490179
6957, 260.456226, 260.456226, 1841.770145
6958, 269.198285, 269.198285, 1831.775080
6959, 283.314659, 232.510332, 1840.069796
6960, 286.147806, 234.835435, 1843.470494
6961, 203.621038, 304.740420, 1840.069796
6962, 205.657249, 307.787824, 1843.470494
6963, 209.413599, 313.409600, 1828.490179
6964, 204.639144, 306.264122, 1841.770145
6965, 211.507735, 316.543696, 1831.775080
6966, 232.510332, 283.314659, 1840.069796
6967, 234.835435, 286.147806, 1843.470494
6968, 140.256611, 338.609412, 1840.069796
6969, 141.659177, 341.995506, 1843.470494
6970, 144.246596, 348.242089, 1828.490179
6971, 140.957894, 340.302459, 1841.770145
6972, 145.689062, 351.724510, 1831.775080
6973, 172.770763, 323.231363, 1840.069796
6974, 174.498471, 326.463677, 1843.470494
6975, 71.502200, 359.465834, 1840.069796
6976, 72.217222, 363.060493, 1843.470494
6977, 73.536277, 369.691829, 1828.490179
6978, 71.859711, 361.263163, 1841.770145
6979, 74.271640, 373.388748, 1831.775080
6980, 106.391711, 350.726467, 1840.069796
6981, 107.455628, 354.233732, 1843.470494
6982, 0.000000, 366.508186, 1840.069796
6983, 0.000000, 370.173268, 1843.470494
6984, 0.000000, 376.934521, 1828.490179
6985, 0.000000, 368.340727, 1841.770145
6986, 0.000000, 380.703866, 1831.775080
6987, 35.924084, 364.743349, 1840.069796
6988, 36.283325, 368.390783, 1843.470494
6989, 373.838350, 0.000000, 1846.871192
6990, 366.655151, 72.932244, 1846.871192
6991, 372.005809, 0.000000, 1845.170843
6992, 384.473211, 0.000000, 1835.059982
6993, 364.857822, 72.574733, 1845.170843
6994, 377.085666, 75.007003, 1835.059982
6995, 372.038216, 36.642566, 1846.871192
6996, 345.381600, 143.061743, 1846.871192
6997, 343.688553, 142.360460, 1845.170843
6998, 355.206930, 147.131528, 1835.059982
6999, 357.740996, 108.519545, 1846.871192
7000, 310.835228, 207.693459, 1846.871192
7001, 309.311526, 206.675354, 1845.170843
7002, 319.677792, 213.601871, 1835.059982
7003, 329.695990, 176.226178, 1846.871192
7004, 264.343632, 264.343632, 1846.871192
7005, 263.047830, 263.047830, 1845.170843
7006, 271.863615, 271.863615, 1835.059982
7007, 288.980952, 237.160539, 1846.871192
7008, 207.693459, 310.835228, 1846.871192
7009, 206.675354, 309.311526, 1845.170843
7010, 213.601871, 319.677792, 1835.059982
7011, 237.160539, 288.980952, 1846.871192
7012, 143.061743, 345.381600, 1846.871192
7013, 142.360460, 343.688553, 1845.170843
7014, 147.131528, 355.206930, 1835.059982
7015, 176.226178, 329.695990, 1846.871192
7016, 72.932244, 366.655151, 1846.871192
7017, 72.574733, 364.857822, 1845.170843
7018, 75.007003, 377.085666, 1835.059982
7019, 108.519545, 357.740996, 1846.871192
7020, 0.000000, 373.838350, 1846.871192
7021, 0.000000, 372.005809, 1845.170843
7022, 0.000000, 384.473211, 1835.059982
7023, 36.642566, 372.038216, 1846.871192
7024, 377.503432, 0.000000, 1850.271890
7025, 370.249809, 73.647266, 1850.271890
7026, 375.670891, 0.000000, 1848.571541
7027, 388.242556, 0.000000, 1838.344884
7028, 368.452480, 73.289755, 1848.571541
7029, 380.782584, 75.742365, 1838.344884
7030, 375.685650, 37.001807, 1850.271890
7031, 348.767694, 144.464309, 1850.271890
7032, 347.074647, 143.763026, 1848.571541
7033, 358.689351, 148.573994, 1838.344884
7034, 361.248261, 109.583462, 1850.271890
7035, 313.882632, 209.729670, 1850.271890
7036, 312.358930, 208.711564, 1848.571541
7037, 322.811888, 215.696007, 1838.344884
7038, 332.928304, 177.953886, 1850.271890
7039, 266.935237, 266.935237, 1850.271890
7040, 265.639434, 265.639434, 1848.571541
7041, 274.528944, 274.528944, 1838.344884
7042, 291.814099, 239.485642, 1850.271890
7043, 209.729670, 313.882632, 1850.271890
7044, 208.711564, 312.358930, 1848.571541
7045, 215.696007, 322.811888, 1838.344884
7046, 239.485642, 291.814099, 1850.271890
7047, 144.464309, 348.767694, 1850.271890
7048, 143.763026, 347.074647, 1848.571541
7049, 148.573994, 358.689351, 1838.344884
7050, 177.953886, 332.928304, 1850.271890
7051, 73.647266, 370.249809, 1850.271890
7052, 73.289755, 368.452480, 1848.571541
7053, 75.742365, 380.782584, 1838.344884
7054, 109.583462, 361.248261, 1850.271890
7055, 0.000000, 377.503432, 1850.271890
7056, 0.000000, 375.670891, 1848.571541
7057, 0.000000, 388.242556, 1838.344884
7058, 37.001807, 375.685650, 1850.271890
7059, 381.168514, 0.000000, 1853.672588
7060, 373.844468, 74.362288, 1853.672588
7061, 379.335973, 0.000000, 1851.972239
7062, 392.011901, 0.000000, 1841.629786
7063, 372.047138, 74.004777, 1851.972239
7064, 384.479503, 76.477728, 1841.629786
7065, 379.333083, 37.361048, 1853.672588
7066, 352.153788, 145.866875, 1853.672588
7067, 350.460741, 145.165592, 1851.972239
7068, 362.171772, 150.016460, 1841.629786
7069, 364.755526, 110.647379, 1853.672588
7070, 316.930036, 211.765880, 1853.672588
7071, 315.406334, 210.747775, 1851.972239
7072, 325.945984, 217.790143, 1841.629786
7073, 336.160618, 179.681594, 1853.672588
7074, 269.526841, 269.526841, 1853.672588
7075, 268.231039, 268.231039, 1851.972239
7076, 277.194274, 277.194274, 1841.629786
7077, 294.647246, 241.810745, 1853.672588
7078, 211.765880, 316.930036, 1853.672588
7079, 210.747775, 315.406334, 1851.972239
7080, 217.790143, 325.945984, 1841.629786
7081, 241.810745, 294.647246, 1853.672588
7082, 145.866875, 352.153788, 1853.672588
7083, 145.165592, 350.460741, 1851.972239
7084, 150.016460, 362.171772, 1841.629786
7085, 179.681594, 336.160618, 1853.672588
7086, 74.362288, 373.844468, 1853.672588
7087, 74.004777, 372.047138, 1851.972239
7088, 76.477728, 384.479503, 1841.629786
7089, 110.647379, 364.755526, 1853.672588
7090, 0.000000, 381.168514, 1853.672588
7091, 0.000000, 379.335973, 1851.972239
7092, 0.000000, 392.011901, 1841.629786
7093, 37.361048, 379.333083, 1853.672588
7094, 344.619182, 0.000000, 1862.247222
7095, 348.065373, 0.000000, 1865.869694
7096, 337.997421, 67.231867, 1862.247222
7097, 341.377395, 67.904186, 1865.869694
7098, 355.732988, 0.000000, 1851.325716
7099, 346.342278, 0.000000, 1864.058458
7100, 359.290318, 0.000000, 1854.838973
7101, 348.897678, 69.400063, 1851.325716
7102, 339.687408, 67.568026, 1864.058458
7103, 352.386655, 70.094064, 1854.838973
7104, 342.959746, 33.778587, 1862.247222
7105, 346.389344, 34.116373, 1865.869694
7106, 318.386608, 131.880051, 1862.247222
7107, 321.570474, 133.198852, 1865.869694
7108, 328.654427, 136.133121, 1851.325716
7109, 319.978541, 132.539452, 1864.058458
7110, 331.940971, 137.494452, 1854.838973
7111, 329.779995, 100.037668, 1862.247222
7112, 333.077795, 101.038045, 1865.869694
7113, 286.540377, 191.460159, 1862.247222
7114, 289.405781, 193.374761, 1865.869694
7115, 295.781169, 197.634659, 1851.325716
7116, 287.973079, 192.417460, 1864.058458
7117, 298.738981, 199.611006, 1854.838973
7118, 303.926984, 162.452358, 1862.247222
7119, 306.966254, 164.076881, 1865.869694
7120, 243.682560, 243.682560, 1862.247222
7121, 246.119386, 246.119386, 1865.869694
7122, 251.541208, 251.541208, 1851.325716
7123, 244.900973, 244.900973, 1864.058458
7124, 254.056620, 254.056620, 1854.838973
7125, 266.394230, 218.624094, 1862.247222
7126, 269.058172, 220.810335, 1865.869694
7127, 191.460159, 286.540377, 1862.247222
7128, 193.374761, 289.405781, 1865.869694
7129, 197.634659, 295.781169, 1851.325716
7130, 192.417460, 287.973079, 1864.058458
7131, 199.611006, 298.738981, 1854.838973
7132, 218.624094, 266.394230, 1862.247222
7133, 220.810335, 269.058172, 1865.869694
7134, 131.880051, 318.386608, 1862.247222
7135, 133.198852, 321.570474, 1865.869694
7136, 136.133121, 328.654427, 1851.325716
7137, 132.539452, 319.978541, 1864.058458
7138, 137.494452, 331.940971, 1854.838973
7139, 162.452358, 303.926984, 1862.247222
7140, 164.076881, 306.966254, 1865.869694
7141, 67.231867, 337.997421, 1862.247222
7142, 67.904186, 341.377395, 1865.869694
7143, 69.400063, 348.897678, 1851.325716
7144, 67.568026, 339.687408, 1864.058458
7145, 70.094064, 352.386655, 1854.838973
7146, 100.037668, 329.779995, 1862.247222
7147, 101.038045, 333.077795, 1865.869694
7148, 0.000000, 344.619182, 1862.247222
7149, 0.000000, 348.065373, 1865.869694
7150, 0.000000, 355.732988, 1851.325716
7151, 0.000000, 346.342278, 1864.058458
7152, 0.000000, 359.290318, 1854.838973
7153, 33.778587, 342.959746, 1862.247222
7154, 34.116373, 346.389344, 1865.869694
7155, 351.511565, 0.000000, 1869.492167
7156, 344.757369, 68.576504, 1869.492167
7157, 349.788469, 0.000000, 1867.680930
7158, 362.847648, 0.000000, 1858.352230
7159, 343.067382, 68.240345, 1867.680930
7160, 355.875632, 70.788064, 1858.352230
7161, 349.818941, 34.454158, 1869.492167
7162, 324.754341, 134.517652, 1869.492167
7163, 323.162408, 133.858252, 1867.680930
7164, 335.227515, 138.855783, 1858.352230
7165, 336.375595, 102.038421, 1869.492167
7166, 292.271185, 195.289362, 1869.492167
7167, 290.838483, 194.332061, 1867.680930
7168, 301.696793, 201.587352, 1858.352230
7169, 310.005524, 165.701405, 1869.492167
7170, 248.556211, 248.556211, 1869.492167
7171, 247.337799, 247.337799, 1867.680930
7172, 256.572032, 256.572032, 1858.352230
7173, 271.722114, 222.996576, 1869.492167
7174, 195.289362, 292.271185, 1869.492167
7175, 194.332061, 290.838483, 1867.680930
7176, 201.587352, 301.696793, 1858.352230
7177, 222.996576, 271.722114, 1869.492167
7178, 134.517652, 324.754341, 1869.492167
7179, 133.858252, 323.162408, 1867.680930
7180, 138.855783, 335.227515, 1858.352230
7181, 165.701405, 310.005524, 1869.492167
7182, 68.576504, 344.757369, 1869.492167
7183, 68.240345, 343.067382, 1867.680930
7184, 70.788064, 355.875632, 1858.352230
7185, 102.038421, 336.375595, 1869.492167
7186, 0.000000, 351.511565, 1869.492167
7187, 0.000000, 349.788469, 1867.680930
7188, 0.000000, 362.847648, 1858.352230
7189, 34.454158, 349.818941, 1869.492167
7190, 354.957757, 0.000000, 1873.114639
7191, 348.137343, 69.248823, 1873.114639
7192, 353.234661, 0.000000, 1871.303403
7193, 366.404977, 0.000000, 1861.865487
7194, 346.447356, 68.912664, 1871.303403
7195, 359.364609, 71.482065, 1861.865487
7196, 353.248538, 34.791944, 1873.114639
7197, 327.938207, 135.836453, 1873.114639
7198, 326.346274, 135.177053, 1871.303403
7199, 338.514059, 140.217114, 1861.865487
7200, 339.673395, 103.038798, 1873.114639
7201, 295.136589, 197.203964, 1873.114639
7202, 293.703887, 196.246663, 1871.303403
7203, 304.654605, 203.563699, 1861.865487
7204, 313.044794, 167.325928, 1873.114639
7205, 250.993037, 250.993037, 1873.114639
7206, 249.774624, 249.774624, 1871.303403
7207, 259.087444, 259.087444, 1861.865487
7208, 274.386057, 225.182817, 1873.114639
7209, 197.203964, 295.136589, 1873.114639
7210, 196.246663, 293.703887, 1871.303403
7211, 203.563699, 304.654605, 1861.865487
7212, 225.182817, 274.386057, 1873.114639
7213, 135.836453, 327.938207, 1873.114639
7214, 135.177053, 326.346274, 1871.303403
7215, 140.217114, 338.514059, 1861.865487
7216, 167.325928, 313.044794, 1873.114639
7217, 69.248823, 348.137343, 1873.114639
7218, 68.912664, 346.447356, 1871.303403
7219, 71.482065, 359.364609, 1861.865487
7220, 103.038798, 339.673395, 1873.114639
7221, 0.000000, 354.957757, 1873.114639
7222, 0.000000, 353.234661, 1871.303403
7223, 0.000000, 366.404977, 1861.865487
7224, 34.791944, 353.248538, 1873.114639
7225, 358.403949, 0.000000, 1876.737111
7226, 351.517317, 69.921142, 1876.737111
7227, 356.680853, 0.000000, 1874.925875
7228, 369.962307, 0.000000, 1865.378744
7229, 349.827330, 69.584982, 1874.925875
7230, 362.853585, 72.176066, 1865.378744
7231, 356.678136, 35.129730, 1876.737111
7232, 331.122073, 137.155253, 1876.737111
7233, 329.530140, 136.495853, 1874.925875
7234, 341.800604, 141.578446, 1865.378744
7235, 342.971195, 104.039175, 1876.737111
7236, 298.001992, 199.118565, 1876.737111
7237, 296.569291, 198.161265, 1874.925875
7238, 307.612416, 205.540045, 1865.378744
7239, 316.084064, 168.950452, 1876.737111
7240, 253.429863, 253.429863, 1876.737111
7241, 252.211450, 252.211450, 1874.925875
7242, 261.602856, 261.602856, 1865.378744
7243, 277.049999, 227.369058, 1876.737111
7244, 199.118565, 298.001992, 1876.737111
7245, 198.161265, 296.569291, 1874.925875
7246, 205.540045, 307.612416, 1865.378744
7247, 227.369058, 277.049999, 1876.737111
7248, 137.155253, 331.122073, 1876.737111
7249, 136.495853, 329.530140, 1874.925875
7250, 141.578446, 341.800604, 1865.378744
7251, 168.950452, 316.084064, 1876.737111
7252, 69.921142, 351.517317, 1876.737111
7253, 69.584982, 349.827330, 1874.925875
7254, 72.176066, 362.853585, 1865.378744
7255, 104.039175, 342.971195, 1876.737111
7256, 0.000000, 358.403949, 1876.737111
7257, 0.000000, 356.680853, 1874.925875
7258, 0.000000, 369.962307, 1865.378744
7259, 35.129730, 356.678136, 1876.737111
7260, 321.393805, 0.000000, 1883.022222
7261, 324.607743, 0.000000, 1886.852444
7262, 315.218313, 62.700821, 1883.022222
7263, 318.370496, 63.327829, 1886.852444
7264, 333.153849, 0.000000, 1872.799374
7265, 323.000774, 0.000000, 1884.937333
7266, 336.485387, 0.000000, 1876.527368
7267, 326.752391, 64.995092, 1872.799374
7268, 316.794405, 63.014325, 1884.937333
7269, 330.019915, 65.645043, 1876.527368
7270, 319.846206, 31.502102, 1883.022222
7271, 323.044668, 31.817123, 1886.852444
7272, 296.929158, 122.992084, 1883.022222
7273, 299.898450, 124.222005, 1886.852444
7274, 307.794022, 127.492458, 1872.799374
7275, 298.413804, 123.607045, 1884.937333
7276, 310.871962, 128.767383, 1876.527368
7277, 307.554696, 93.295697, 1883.022222
7278, 310.630242, 94.228654, 1886.852444
7279, 267.229182, 178.556831, 1883.022222
7280, 269.901474, 180.342399, 1886.852444
7281, 277.007302, 185.090361, 1872.799374
7282, 268.565328, 179.449615, 1884.937333
7283, 279.777375, 186.941265, 1876.527368
7284, 283.444031, 151.503991, 1883.022222
7285, 286.278471, 153.019031, 1886.852444
7286, 227.259739, 227.259739, 1883.022222
7287, 229.532336, 229.532336, 1886.852444
7288, 235.575346, 235.575346, 1872.799374
7289, 228.396038, 228.396038, 1884.937333
7290, 237.931099, 237.931099, 1876.527368
7291, 248.440771, 203.890071, 1883.022222
7292, 250.925178, 205.928972, 1886.852444
7293, 178.556831, 267.229182, 1883.022222
7294, 180.342399, 269.901474, 1886.852444
7295, 185.090361, 277.007302, 1872.799374
7296, 179.449615, 268.565328, 1884.937333
7297, 186.941265, 279.777375, 1876.527368
7298, 203.890071, 248.440771, 1883.022222
7299, 205.928972, 250.925178, 1886.852444
7300, 122.992084, 296.929158, 1883.022222
7301, 124.222005, 299.898450, 1886.852444
7302, 127.492458, 307.794022, 1872.799374
7303, 123.607045, 298.413804, 1884.937333
7304, 128.767383, 310.871962, 1876.527368
7305, 151.503991, 283.444031, 1883.022222
7306, 153.019031, 286.278471, 1886.852444
7307, 62.700821, 315.218313, 1883.022222
7308, 63.327829, 318.370496, 1886.852444
7309, 64.995092, 326.752391, 1872.799374
7310, 63.014325, 316.794405, 1884.937333
7311, 65.645043, 330.019915, 1876.527368
7312, 93.295697, 307.554696, 1883.022222
7313, 94.228654, 310.630242, 1886.852444
7314, 0.000000, 321.393805, 1883.022222
7315, 0.000000, 324.607743, 1886.852444
7316, 0.000000, 333.153849, 1872.799374
7317, 0.000000, 323.000774, 1884.937333
7318, 0.000000, 336.485387, 1876.527368
7319, 31.502102, 319.846206, 1883.022222
7320, 31.817123, 323.044668, 1886.852444
7321, 327.821681, 0.000000, 1890.682666
7322, 321.522679, 63.954837, 1890.682666
7323, 326.214712, 0.000000, 1888.767555
7324, 339.816926, 0.000000, 1880.255362
7325, 319.946588, 63.641333, 1888.767555
7326, 333.287439, 66.294993, 1880.255362
7327, 326.243130, 32.132144, 1890.682666
7328, 302.867741, 125.451926, 1890.682666
7329, 301.383096, 124.836966, 1888.767555
7330, 313.949903, 130.042308, 1880.255362
7331, 313.705789, 95.161611, 1890.682666
7332, 272.573766, 182.127968, 1890.682666
7333, 271.237620, 181.235184, 1888.767555
7334, 282.547448, 188.792169, 1880.255362
7335, 289.112911, 154.534071, 1890.682666
7336, 231.804934, 231.804934, 1890.682666
7337, 230.668635, 230.668635, 1888.767555
7338, 240.286853, 240.286853, 1880.255362
7339, 253.409586, 207.967873, 1890.682666
7340, 182.127968, 272.573766, 1890.682666
7341, 181.235184, 271.237620, 1888.767555
7342, 188.792169, 282.547448, 1880.255362
7343, 207.967873, 253.409586, 1890.682666
7344, 125.451926, 302.867741, 1890.682666
7345, 124.836966, 301.383096, 1888.767555
7346, 130.042308, 313.949903, 1880.255362
7347, 154.534071, 289.112911, 1890.682666
7348, 63.954837, 321.522679, 1890.682666
7349, 63.641333, 319.946588, 1888.767555
7350, 66.294993, 333.287439, 1880.255362
7351, 95.161611, 313.705789, 1890.682666
7352, 0.000000, 327.821681, 1890.682666
7353, 0.000000, 326.214712, 1888.767555
7354, 0.000000, 339.816926, 1880.255362
7355, 32.132144, 326.243130, 1890.682666
7356, 331.035619, 0.000000, 1894.512888
7357, 324.674862, 64.581846, 1894.512888
7358, 329.428650, 0.000000, 1892.597777
7359, 343.148464, 0.000000, 1883.983356
7360, 323.098771, 64.268341, 1892.597777
7361, 336.554963, 66.944944, 1883.983356
7362, 329.441592, 32.447165, 1894.512888
7363, 305.837033, 126.681847, 1894.512888
7364, 304.352387, 126.066886, 1892.597777
7365, 317.027843, 131.317232, 1883.983356
7366, 316.781336, 96.094568, 1894.512888
7367, 275.246058, 183.913536, 1894.512888
7368, 273.909912, 183.020752, 1892.597777
7369, 285.317521, 190.643072, 1883.983356
7370, 291.947352, 156.049111, 1894.512888
7371, 234.077531, 234.077531, 1894.512888
7372, 232.941232, 232.941232, 1892.597777
7373, 242.642606, 242.642606, 1883.983356
7374, 255.893994, 210.006774, 1894.512888
7375, 183.913536, 275.246058, 1894.512888
7376, 183.020752, 273.909912, 1892.597777
7377, 190.643072, 285.317521, 1883.983356
7378, 210.006774, 255.893994, 1894.512888
7379, 126.681847, 305.837033, 1894.512888
7380, 126.066886, 304.352387, 1892.597777
7381, 131.317232, 317.027843, 1883.983356
7382, 156.049111, 291.947352, 1894.512888
7383, 64.581846, 324.674862, 1894.512888
7384, 64.268341, 323.098771, 1892.597777
7385, 66.944944, 336.554963, 1883.983356
7386, 96.094568, 316.781336, 1894.512888
7387, 0.000000, 331.035619, 1894.512888
7388, 0.000000, 329.428650, 1892.597777
7389, 0.000000, 343.148464, 1883.983356
7390, 32.447165, 329.441592, 1894.512888
7391, 334.249557, 0.000000, 1898.343110
7392, 327.827046, 65.208854, 1898.343110
7393, 332.642588, 0.000000, 1896.427999
7394, 346.480003, 0.000000, 1887.711349
7395, 326.250954, 64.895350, 1896.427999
7396, 339.822487, 67.594895, 1887.711349
7397, 332.640054, 32.762186, 1898.343110
7398, 308.806324, 127.911768, 1898.343110
7399, 307.321679, 127.296807, 1896.427999
7400, 320.105783, 132.592157, 1887.711349
7401, 319.856883, 97.027525, 1898.343110
7402, 277.918350, 185.699104, 1898.343110
7403, 276.582204, 184.806320, 1896.427999
7404, 288.087594, 192.493976, 1887.711349
7405, 294.781792, 157.564150, 1898.343110
7406, 236.350128, 236.350128, 1898.343110
7407, 235.213830, 235.213830, 1896.427999
7408, 244.998359, 244.998359, 1887.711349
7409, 258.378402, 212.045674, 1898.343110
7410, 185.699104, 277.918350, 1898.343110
7411, 184.806320, 276.582204, 1896.427999
7412, 192.493976, 288.087594, 1887.711349
7413, 212.045674, 258.378402, 1898.343110
7414, 127.911768, 308.806324, 1898.343110
7415, 127.296807, 307.321679, 1896.427999
7416, 132.592157, 320.105783, 1887.711349
7417, 157.564150, 294.781792, 1898.343110
7418, 65.208854, 327.827046, 1898.343110
7419, 64.895350, 326.250954, 1896.427999
7420, 67.594895, 339.822487, 1887.711349
7421, 97.027525, 319.856883, 1898.343110
7422, 0.000000, 334.249557, 1898.343110
7423, 0.000000, 332.642588, 1896.427999
7424, 0.000000, 346.480003, 1887.711349
7425, 32.762186, 332.640054, 1898.343110
7426, 307.019216, 0.000000, 1894.632433
7427, 310.629800, 0.000000, 1898.156160
7428, 301.119928, 59.896478, 1894.632433
7429, 304.661136, 60.600868, 1898.156160
7430, 314.259906, 0.000000, 1888.893473
7431, 308.824508, 0.000000, 1896.394296
7432, 317.669014, 0.000000, 1892.566474
7433, 308.221490, 61.309066, 1888.893473
7434, 302.890532, 60.248673, 1896.394296
7435, 311.565093, 61.974150, 1892.566474
7436, 305.540835, 30.093146, 1894.632433
7437, 309.134033, 30.447045, 1898.156160
7438, 283.648770, 117.491167, 1894.632433
7439, 286.984515, 118.872878, 1898.156160
7440, 290.338295, 120.262060, 1888.893473
7441, 285.316642, 118.182023, 1896.394296
7442, 293.487900, 121.566668, 1892.566474
7443, 293.799072, 89.122974, 1894.632433
7444, 297.254185, 90.171071, 1898.156160
7445, 255.277149, 170.570737, 1894.632433
7446, 258.279240, 172.576671, 1898.156160
7447, 261.297562, 174.593449, 1888.893473
7448, 256.778194, 171.573704, 1896.394296
7449, 264.132132, 176.487448, 1892.566474
7450, 270.766775, 144.727857, 1894.632433
7451, 273.951026, 146.429874, 1898.156160
7452, 217.095370, 217.095370, 1894.632433
7453, 219.648438, 219.648438, 1898.156160
7454, 222.215311, 222.215311, 1888.893473
7455, 218.371904, 218.371904, 1896.394296
7456, 224.625914, 224.625914, 1892.566474
7457, 237.329063, 194.770929, 1894.632433
7458, 240.120083, 197.061459, 1898.156160
7459, 170.570737, 255.277149, 1894.632433
7460, 172.576671, 258.279240, 1898.156160
7461, 174.593449, 261.297562, 1888.893473
7462, 171.573704, 256.778194, 1896.394296
7463, 176.487448, 264.132132, 1892.566474
7464, 194.770929, 237.329063, 1894.632433
7465, 197.061459, 240.120083, 1898.156160
7466, 117.491167, 283.648770, 1894.632433
7467, 118.872878, 286.984515, 1898.156160
7468, 120.262060, 290.338295, 1888.893473
7469, 118.182023, 285.316642, 1896.394296
7470, 121.566668, 293.487900, 1892.566474
7471, 144.727857, 270.766775, 1894.632433
7472, 146.429874, 273.951026, 1898.156160
7473, 59.896478, 301.119928, 1894.632433
7474, 60.600868, 304.661136, 1898.156160
7475, 61.309066, 308.221490, 1888.893473
7476, 60.248673, 302.890532, 1896.394296
7477, 61.974150, 311.565093, 1892.566474
7478, 89.122974, 293.799072, 1894.632433
7479, 90.171071, 297.254185, 1898.156160
7480, 0.000000, 307.019216, 1894.632433
7481, 0.000000, 310.629800, 1898.156160
7482, 0.000000, 314.259906, 1888.893473
7483, 0.000000, 308.824508, 1896.394296
7484, 0.000000, 317.669014, 1892.566474
7485, 30.093146, 305.540835, 1894.632433
7486, 30.447045, 309.134033, 1898.156160
7487, 314.240385, 0.000000, 1901.679887
7488, 308.202344, 61.305258, 1901.679887
7489, 312.435092, 0.000000, 1899.918023
7490, 321.078121, 0.000000, 1896.239476
7491, 306.431740, 60.953063, 1899.918023
7492, 314.908695, 62.639234, 1896.239476
7493, 312.727231, 30.800944, 1901.679887
7494, 290.320260, 120.254589, 1901.679887
7495, 288.652387, 119.563734, 1899.918023
7496, 296.637504, 122.871277, 1896.239476
7497, 300.709299, 91.219169, 1901.679887
7498, 261.281331, 174.582604, 1901.679887
7499, 259.780285, 173.579637, 1899.918023
7500, 266.966701, 178.381447, 1896.239476
7501, 277.135277, 148.131892, 1901.679887
7502, 222.201507, 222.201507, 1901.679887
7503, 220.924973, 220.924973, 1899.918023
7504, 227.036517, 227.036517, 1896.239476
7505, 242.911102, 199.351990, 1901.679887
7506, 174.582604, 261.281331, 1901.679887
7507, 173.579637, 259.780285, 1899.918023
7508, 178.381447, 266.966701, 1896.239476
7509, 199.351990, 242.911102, 1901.679887
7510, 120.254589, 290.320260, 1901.679887
7511, 119.563734, 288.652387, 1899.918023
7512, 122.871277, 296.637504, 1896.239476
7513, 148.131892, 277.135277, 1901.679887
7514, 61.305258, 308.202344, 1901.679887
7515, 60.953063, 306.431740, 1899.918023
7516, 62.639234, 314.908695, 1896.239476
7517, 91.219169, 300.709299, 1901.679887
7518, 0.000000, 314.240385, 1901.679887
7519, 0.000000, 312.435092, 1899.918023
7520, 0.000000, 321.078121, 1896.239476
7521, 30.800944, 312.727231, 1901.679887
7522, 317.850969, 0.000000, 1905.203614
7523, 311.743552, 62.009648, 1905.203614
7524, 316.045677, 0.000000, 1903.441750
7525, 324.487229, 0.000000, 1899.912477
7526, 309.972948, 61.657453, 1903.441750
7527, 318.252297, 63.304318, 1899.912477
7528, 316.320430, 31.154843, 1905.203614
7529, 293.656005, 121.636300, 1905.203614
7530, 291.988132, 120.945444, 1903.441750
7531, 299.787109, 124.175886, 1899.912477
7532, 304.164413, 92.267266, 1905.203614
7533, 264.283422, 176.588537, 1905.203614
7534, 262.782376, 175.585570, 1903.441750
7535, 269.801270, 180.275445, 1899.912477
7536, 280.319528, 149.833910, 1905.203614
7537, 224.754576, 224.754576, 1905.203614
7538, 223.478041, 223.478041, 1903.441750
7539, 229.447120, 229.447120, 1899.912477
7540, 245.702122, 201.642520, 1905.203614
7541, 176.588537, 264.283422, 1905.203614
7542, 175.585570, 262.782376, 1903.441750
7543, 180.275445, 269.801270, 1899.912477
7544, 201.642520, 245.702122, 1905.203614
7545, 121.636300, 293.656005, 1905.203614
7546, 120.945444, 291.988132, 1903.441750
7547, 124.175886, 299.787109, 1899.912477
7548, 149.833910, 280.319528, 1905.203614
7549, 62.009648, 311.743552, 1905.203614
7550, 61.657453, 309.972948, 1903.441750
7551, 63.304318, 318.252297, 1899.912477
7552, 92.267266, 304.164413, 1905.203614
7553, 0.000000, 317.850969, 1905.203614
7554, 0.000000, 316.045677, 1903.441750
7555, 0.000000, 324.487229, 1899.912477
7556, 31.154843, 316.320430, 1905.203614
7557, 321.461553, 0.000000, 1908.727341
7558, 315.284760, 62.714038, 1908.727341
7559, 319.656261, 0.000000, 1906.965477
7560, 327.896336, 0.000000, 1903.585478
7561, 313.514156, 62.361843, 1906.965477
7562, 321.595900, 63.969402, 1903.585478
7563, 319.913628, 31.508742, 1908.727341
7564, 296.991749, 123.018011, 1908.727341
7565, 295.323877, 122.327155, 1906.965477
7566, 302.936714, 125.480495, 1903.585478
7567, 307.619527, 93.315363, 1908.727341
7568, 267.285513, 178.594470, 1908.727341
7569, 265.784467, 177.591503, 1906.965477
7570, 272.635839, 182.169444, 1903.585478
7571, 283.503779, 151.535927, 1908.727341
7572, 227.307644, 227.307644, 1908.727341
7573, 226.031110, 226.031110, 1906.965477
7574, 231.857723, 231.857723, 1903.585478
7575, 248.493141, 203.933050, 1908.727341
7576, 178.594470, 267.285513, 1908.727341
7577, 177.591503, 265.784467, 1906.965477
7578, 182.169444, 272.635839, 1903.585478
7579, 203.933050, 248.493141, 1908.727341
7580, 123.018011, 296.991749, 1908.727341
7581, 122.327155, 295.323877, 1906.965477
7582, 125.480495, 302.936714, 1903.585478
7583, 151.535927, 283.503779, 1908.727341
7584, 62.714038, 315.284760, 1908.727341
7585, 62.361843, 313.514156, 1906.965477
7586, 63.969402, 321.595900, 1903.585478
7587, 93.315363, 307.619527, 1908.727341
7588, 0.000000, 321.461553, 1908.727341
7589, 0.000000, 319.656261, 1906.965477
7590, 0.000000, 327.896336, 1903.585478
7591, 31.508742, 319.913628, 1908.727341
7592, 292.227261, 0.000000, 1905.705788
7593, 296.258851, 0.000000, 1908.955478
7594, 286.612196, 57.010711, 1905.705788
7595, 290.566320, 57.797235, 1908.955478
7596, 299.674176, 0.000000, 1900.237167
7597, 294.243056, 0.000000, 1907.330633
7598, 303.492328, 0.000000, 1903.619735
7599, 293.916021, 58.463531, 1900.237167
7600, 288.589258, 57.403973, 1907.330633
7601, 297.660808, 59.208416, 1903.619735
7602, 290.820107, 28.643280, 1905.705788
7603, 294.832283, 29.038445, 1908.955478
7604, 269.982786, 111.830531, 1905.705788
7605, 273.707489, 113.373354, 1908.955478
7606, 276.862838, 114.680342, 1900.237167
7607, 271.845137, 112.601943, 1907.330633
7608, 280.390350, 116.141486, 1903.619735
7609, 279.644054, 84.829096, 1905.705788
7610, 283.502044, 85.999405, 1908.955478
7611, 242.978088, 162.352768, 1905.705788
7612, 246.330232, 164.592599, 1908.955478
7613, 249.169971, 166.490052, 1900.237167
7614, 244.654160, 163.472683, 1907.330633
7615, 252.344648, 168.611303, 1903.619735
7616, 257.721436, 137.754977, 1905.705788
7617, 261.276980, 139.655456, 1908.955478
7618, 206.635878, 206.635878, 1905.705788
7619, 209.486642, 209.486642, 1908.955478
7620, 211.901642, 211.901642, 1900.237167
7621, 208.061260, 208.061260, 1907.330633
7622, 214.601483, 214.601483, 1903.619735
7623, 225.894728, 185.387012, 1905.705788
7624, 229.011189, 187.944625, 1908.955478
7625, 162.352768, 242.978088, 1905.705788
7626, 164.592599, 246.330232, 1908.955478
7627, 166.490052, 249.169971, 1900.237167
7628, 163.472683, 244.654160, 1907.330633
7629, 168.611303, 252.344648, 1903.619735
7630, 185.387012, 225.894728, 1905.705788
7631, 187.944625, 229.011189, 1908.955478
7632, 111.830531, 269.982786, 1905.705788
7633, 113.373354, 273.707489, 1908.955478
7634, 114.680342, 276.862838, 1900.237167
7635, 112.601943, 271.845137, 1907.330633
7636, 116.141486, 280.390350, 1903.619735
7637, 137.754977, 257.721436, 1905.705788
7638, 139.655456, 261.276980, 1908.955478
7639, 57.010711, 286.612196, 1905.705788
7640, 57.797235, 290.566320, 1908.955478
7641, 58.463531, 293.916021, 1900.237167
7642, 57.403973, 288.589258, 1907.330633
7643, 59.208416, 297.660808, 1903.619735
7644, 84.829096, 279.644054, 1905.705788
7645, 85.999405, 283.502044, 1908.955478
7646, 0.000000, 292.227261, 1905.705788
7647, 0.000000, 296.258851, 1908.955478
7648, 0.000000, 299.674176, 1900.237167
7649, 0.000000, 294.243056, 1907.330633
7650, 0.000000, 303.492328, 1903.619735
7651, 28.643280, 290.820107, 1905.705788
7652, 29.038445, 294.832283, 1908.955478
7653, 300.290440, 0.000000, 1912.205167
7654, 294.520444, 58.583759, 1912.205167
7655, 298.274645, 0.000000, 1910.580323
7656, 307.310479, 0.000000, 1907.002304
7657, 292.543382, 58.190497, 1910.580323
7658, 301.405595, 59.953300, 1907.002304
7659, 298.844460, 29.433610, 1912.205167
7660, 277.432191, 114.916176, 1912.205167
7661, 275.569840, 114.144765, 1910.580323
7662, 283.917862, 117.602629, 1907.002304
7663, 287.360035, 87.169713, 1912.205167
7664, 249.682376, 166.832430, 1912.205167
7665, 248.006304, 165.712514, 1910.580323
7666, 255.519325, 170.732555, 1907.002304
7667, 264.832525, 141.555934, 1912.205167
7668, 212.337407, 212.337407, 1912.205167
7669, 210.912024, 210.912024, 1910.580323
7670, 217.301324, 217.301324, 1907.002304
7671, 232.127649, 190.502239, 1912.205167
7672, 166.832430, 249.682376, 1912.205167
7673, 165.712514, 248.006304, 1910.580323
7674, 170.732555, 255.519325, 1907.002304
7675, 190.502239, 232.127649, 1912.205167
7676, 114.916176, 277.432191, 1912.205167
7677, 114.144765, 275.569840, 1910.580323
7678, 117.602629, 283.917862, 1907.002304
7679, 141.555934, 264.832525, 1912.205167
7680, 58.583759, 294.520444, 1912.205167
7681, 58.190497, 292.543382, 1910.580323
7682, 59.953300, 301.405595, 1907.002304
7683, 87.169713, 287.360035, 1912.205167
7684, 0.000000, 300.290440, 1912.205167
7685, 0.000000, 298.274645, 1910.580323
7686, 0.000000, 307.310479, 1907.002304
7687, 29.433610, 298.844460, 1912.205167
7688, 304.322029, 0.000000, 1915.454857
7689, 298.474567, 59.370283, 1915.454857
7690, 302.306235, 0.000000, 1913.830012
7691, 311.128631, 0.000000, 1910.384873
7692, 296.497505, 58.977021, 1913.830012
7693, 305.150382, 60.698185, 1910.384873
7694, 302.856636, 29.828775, 1915.454857
7695, 281.156894, 116.458999, 1915.454857
7696, 279.294543, 115.687588, 1913.830012
7697, 287.445374, 119.063772, 1910.384873
7698, 291.218025, 88.340022, 1915.454857
7699, 253.034520, 169.072261, 1915.454857
7700, 251.358448, 167.952345, 1913.830012
7701, 258.694002, 172.853806, 1910.384873
7702, 268.388069, 143.456412, 1915.454857
7703, 215.188171, 215.188171, 1915.454857
7704, 213.762789, 213.762789, 1913.830012
7705, 220.001165, 220.001165, 1910.384873
7706, 235.244110, 193.059852, 1915.454857
7707, 169.072261, 253.034520, 1915.454857
7708, 167.952345, 251.358448, 1913.830012
7709, 172.853806, 258.694002, 1910.384873
7710, 193.059852, 235.244110, 1915.454857
7711, 116.458999, 281.156894, 1915.454857
7712, 115.687588, 279.294543, 1913.830012
7713, 119.063772, 287.445374, 1910.384873
7714, 143.456412, 268.388069, 1915.454857
7715, 59.370283, 298.474567, 1915.454857
7716, 58.977021, 296.497505, 1913.830012
7717, 60.698185, 305.150382, 1910.384873
7718, 88.340022, 291.218025, 1915.454857
7719, 0.000000, 304.322029, 1915.454857
7720, 0.000000, 302.306235, 1913.830012
7721, 0.000000, 311.128631, 1910.384873
7722, 29.828775, 302.856636, 1915.454857
7723, 308.353619, 0.000000, 1918.704547
7724, 302.428691, 60.156807, 1918.704547
7725, 306.337824, 0.000000, 1917.079702
7726, 314.946783, 0.000000, 1913.767441
7727, 300.451629, 59.763545, 1917.079702
7728, 308.895169, 61.443069, 1913.767441
7729, 306.868812, 30.223940, 1918.704547
7730, 284.881597, 118.001821, 1918.704547
7731, 283.019246, 117.230410, 1917.079702
7732, 290.972887, 120.524916, 1913.767441
7733, 295.076016, 89.510331, 1918.704547
7734, 256.386664, 171.312092, 1918.704547
7735, 254.710592, 170.192176, 1917.079702
7736, 261.868680, 174.975058, 1913.767441
7737, 271.943613, 145.356890, 1918.704547
7738, 218.038935, 218.038935, 1918.704547
7739, 216.613553, 216.613553, 1917.079702
7740, 222.701006, 222.701006, 1913.767441
7741, 238.360571, 195.617465, 1918.704547
7742, 171.312092, 256.386664, 1918.704547
7743, 170.192176, 254.710592, 1917.079702
7744, 174.975058, 261.868680, 1913.767441
7745, 195.617465, 238.360571, 1918.704547
7746, 118.001821, 284.881597, 1918.704547
7747, 117.230410, 283.019246, 1917.079702
7748, 120.524916, 290.972887, 1913.767441
7749, 145.356890, 271.943613, 1918.704547
7750, 60.156807, 302.428691, 1918.704547
7751, 59.763545, 300.451629, 1917.079702
7752, 61.443069, 308.895169, 1913.767441
7753, 89.510331, 295.076016, 1918.704547
7754, 0.000000, 308.353619, 1918.704547
7755, 0.000000, 306.337824, 1917.079702
7756, 0.000000, 314.946783, 1913.767441
7757, 30.223940, 306.868812, 1918.704547
7758, 277.037882, 0.000000, 1916.227366
7759, 281.513056, 0.000000, 1919.236767
7760, 271.714677, 54.047410, 1916.227366
7761, 276.103861, 54.920473, 1919.236767
7762, 284.680982, 0.000000, 1911.036453
7763, 279.275469, 0.000000, 1917.732067
7764, 288.931655, 0.000000, 1914.161703
7765, 279.210917, 55.538505, 1911.036453
7766, 273.909269, 54.483941, 1917.732067
7767, 283.379914, 56.367770, 1914.161703
7768, 275.703869, 27.154461, 1916.227366
7769, 280.157493, 27.593105, 1919.236767
7770, 255.949629, 106.017808, 1916.227366
7771, 260.084150, 107.730382, 1919.236767
7772, 263.010933, 108.942695, 1911.036453
7773, 258.016890, 106.874095, 1917.732067
7774, 266.938042, 110.569358, 1914.161703
7775, 265.108724, 80.419852, 1916.227366
7776, 269.391198, 81.718927, 1919.236767
7777, 230.348580, 153.914001, 1916.227366
7778, 234.069551, 156.400274, 1919.236767
7779, 236.703586, 158.160280, 1911.036453
7780, 232.209066, 155.157137, 1917.732067
7781, 240.237891, 160.521827, 1914.161703
7782, 244.325599, 130.594754, 1916.227366
7783, 248.272350, 132.704336, 1919.236767
7784, 195.895365, 195.895365, 1916.227366
7785, 199.059791, 199.059791, 1919.236767
7786, 201.299853, 201.299853, 1911.036453
7787, 197.477578, 197.477578, 1917.732067
7788, 204.305533, 204.305533, 1914.161703
7789, 214.153179, 175.750972, 1916.227366
7790, 217.612535, 178.589992, 1919.236767
7791, 153.914001, 230.348580, 1916.227366
7792, 156.400274, 234.069551, 1919.236767
7793, 158.160280, 236.703586, 1911.036453
7794, 155.157137, 232.209066, 1917.732067
7795, 160.521827, 240.237891, 1914.161703
7796, 175.750972, 214.153179, 1916.227366
7797, 178.589992, 217.612535, 1919.236767
7798, 106.017808, 255.949629, 1916.227366
7799, 107.730382, 260.084150, 1919.236767
7800, 108.942695, 263.010933, 1911.036453
7801, 106.874095, 258.016890, 1917.732067
7802, 110.569358, 266.938042, 1914.161703
7803, 130.594754, 244.325599, 1916.227366
7804, 132.704336, 248.272350, 1919.236767
7805, 54.047410, 271.714677, 1916.227366
7806, 54.920473, 276.103861, 1919.236767
7807, 55.538505, 279.210917, 1911.036453
7808, 54.483941, 273.909269, 1917.732067
7809, 56.367770, 283.379914, 1914.161703
7810, 80.419852, 265.108724, 1916.227366
7811, 81.718927, 269.391198, 1919.236767
7812, 0.000000, 277.037882, 1916.227366
7813, 0.000000, 281.513056, 1919.236767
7814, 0.000000, 284.680982, 1911.036453
7815, 0.000000, 279.275469, 1917.732067
7816, 0.000000, 288.931655, 1914.161703
7817, 27.154461, 275.703869, 1916.227366
7818, 27.593105, 280.157493, 1919.236767
7819, 285.988229, 0.000000, 1922.246167
7820, 280.493046, 55.793536, 1922.246167
7821, 283.750643, 0.000000, 1920.741467
7822, 293.182328, 0.000000, 1917.286952
7823, 278.298454, 55.357004, 1920.741467
7824, 287.548912, 57.197035, 1917.286952
7825, 284.611118, 28.031748, 1922.246167
7826, 264.218672, 109.442957, 1922.246167
7827, 262.151411, 108.586670, 1920.741467
7828, 270.865152, 112.196020, 1917.286952
7829, 273.673672, 83.018001, 1922.246167
7830, 237.790522, 158.886547, 1922.246167
7831, 235.930037, 157.643411, 1920.741467
7832, 243.772196, 162.883374, 1917.286952
7833, 252.219101, 134.813918, 1922.246167
7834, 202.224216, 202.224216, 1922.246167
7835, 200.642004, 200.642004, 1920.741467
7836, 207.311212, 207.311212, 1917.286952
7837, 221.071891, 181.429012, 1922.246167
7838, 158.886547, 237.790522, 1922.246167
7839, 157.643411, 235.930037, 1920.741467
7840, 162.883374, 243.772196, 1917.286952
7841, 181.429012, 221.071891, 1922.246167
7842, 109.442957, 264.218672, 1922.246167
7843, 108.586670, 262.151411, 1920.741467
7844, 112.196020, 270.865152, 1917.286952
7845, 134.813918, 252.219101, 1922.246167
7846, 55.793536, 280.493046, 1922.246167
7847, 55.357004, 278.298454, 1920.741467
7848, 57.197035, 287.548912, 1917.286952
7849, 83.018001, 273.673672, 1922.246167
7850, 0.000000, 285.988229, 1922.246167
7851, 0.000000, 283.750643, 1920.741467
7852, 0.000000, 293.182328, 1917.286952
7853, 28.031748, 284.611118, 1922.246167
7854, 290.463403, 0.000000, 1925.255568
7855, 284.882230, 56.666599, 1925.255568
7856, 288.225816, 0.000000, 1923.750867
7857, 297.433001, 0.000000, 1920.412201
7858, 282.687638, 56.230067, 1923.750867
7859, 291.717909, 58.026300, 1920.412201
7860, 289.064743, 28.470392, 1925.255568
7861, 268.353193, 111.155532, 1925.255568
7862, 266.285932, 110.299245, 1923.750867
7863, 274.792262, 113.822682, 1920.412201
7864, 277.956147, 84.317075, 1925.255568
7865, 241.511493, 161.372821, 1925.255568
7866, 239.651008, 160.129684, 1923.750867
7867, 247.306502, 165.244921, 1920.412201
7868, 256.165852, 136.923500, 1925.255568
7869, 205.388642, 205.388642, 1925.255568
7870, 203.806429, 203.806429, 1923.750867
7871, 210.316892, 210.316892, 1920.412201
7872, 224.531247, 184.268032, 1925.255568
7873, 161.372821, 241.511493, 1925.255568
7874, 160.129684, 239.651008, 1923.750867
7875, 165.244921, 247.306502, 1920.412201
7876, 184.268032, 224.531247, 1925.255568
7877, 111.155532, 268.353193, 1925.255568
7878, 110.299245, 266.285932, 1923.750867
7879, 113.822682, 274.792262, 1920.412201
7880, 136.923500, 256.165852, 1925.255568
7881, 56.666599, 284.882230, 1925.255568
7882, 56.230067, 282.687638, 1923.750867
7883, 58.026300, 291.717909, 1920.412201
7884, 84.317075, 277.956147, 1925.255568
7885, 0.000000, 290.463403, 1925.255568
7886, 0.000000, 288.225816, 1923.750867
7887, 0.000000, 297.433001, 1920.412201
7888, 28.470392, 289.064743, 1925.255568
7889, 294.938577, 0.000000, 1928.264968
7890, 289.271415, 57.539662, 1928.264968
7891, 292.700990, 0.000000, 1926.760268
7892, 301.683673, 0.000000, 1923.537450
7893, 287.076823, 57.103130, 1926.760268
7894, 295.886906, 58.855565, 1923.537450
7895, 293.518367, 28.909036, 1928.264968
7896, 272.487715, 112.868107, 1928.264968
7897, 270.420454, 112.011820, 1926.760268
7898, 278.719371, 115.449344, 1923.537450
7899, 282.238621, 85.616150, 1928.264968
7900, 245.232464, 163.859094, 1928.264968
7901, 243.371979, 162.615957, 1926.760268
7902, 250.840807, 167.606469, 1923.537450
7903, 260.112603, 139.033083, 1928.264968
7904, 208.553068, 208.553068, 1928.264968
7905, 206.970855, 206.970855, 1926.760268
7906, 213.322571, 213.322571, 1923.537450
7907, 227.990603, 187.107052, 1928.264968
7908, 163.859094, 245.232464, 1928.264968
7909, 162.615957, 243.371979, 1926.760268
7910, 167.606469, 250.840807, 1923.537450
7911, 187.107052, 227.990603, 1928.264968
7912, 112.868107, 272.487715, 1928.264968
7913, 112.011820, 270.420454, 1926.760268
7914, 115.449344, 278.719371, 1923.537450
7915, 139.033083, 260.112603, 1928.264968
7916, 57.539662, 289.271415, 1928.264968
7917, 57.103130, 287.076823, 1926.760268
7918, 58.855565, 295.886906, 1923.537450
7919, 85.616150, 282.238621, 1928.264968
7920, 0.000000, 294.938577, 1928.264968
7921, 0.000000, 292.700990, 1926.760268
7922, 0.000000, 301.683673, 1923.537450
7923, 28.909036, 293.518367, 1928.264968
7924, 261.471550, 0.000000, 1926.182982
7925, 266.409436, 0.000000, 1928.984525
7926, 256.447447, 51.010569, 1926.182982
7927, 261.290453, 51.973903, 1928.984525
7928, 269.300535, 0.000000, 1921.276777
7929, 263.940493, 0.000000, 1927.583754
7930, 274.004616, 0.000000, 1924.177893
7931, 264.126001, 52.537928, 1921.276777
7932, 258.868950, 51.492236, 1927.583754
7933, 268.739694, 53.455649, 1924.177893
7934, 260.212493, 25.628694, 1926.182982
7935, 265.126601, 26.112691, 1928.984525
7936, 241.568213, 100.060830, 1926.182982
7937, 246.130225, 101.950477, 1928.984525
7938, 248.801253, 103.056853, 1921.276777
7939, 243.849219, 101.005654, 1927.583754
7940, 253.147257, 104.857027, 1924.177893
7941, 250.212672, 75.901184, 1926.182982
7942, 254.937935, 77.334577, 1928.984525
7943, 217.405648, 145.265810, 1926.182982
7944, 221.511350, 148.009152, 1928.984525
7945, 223.915212, 149.615361, 1921.276777
7946, 219.458499, 146.637481, 1927.583754
7947, 227.826512, 152.228808, 1924.177893
7948, 230.597320, 123.256835, 1926.182982
7949, 234.952146, 125.584539, 1928.984525
7950, 184.888306, 184.888306, 1926.182982
7951, 188.379919, 188.379919, 1928.984525
7952, 190.424235, 190.424235, 1921.276777
7953, 186.634112, 186.634112, 1927.583754
7954, 193.750522, 193.750522, 1924.177893
7955, 202.120241, 165.875795, 1926.182982
7956, 205.937279, 169.008357, 1928.984525
7957, 145.265810, 217.405648, 1926.182982
7958, 148.009152, 221.511350, 1928.984525
7959, 149.615361, 223.915212, 1921.276777
7960, 146.637481, 219.458499, 1927.583754
7961, 152.228808, 227.826512, 1924.177893
7962, 165.875795, 202.120241, 1926.182982
7963, 169.008357, 205.937279, 1928.984525
7964, 100.060830, 241.568213, 1926.182982
7965, 101.950477, 246.130225, 1928.984525
7966, 103.056853, 248.801253, 1921.276777
7967, 101.005654, 243.849219, 1927.583754
7968, 104.857027, 253.147257, 1924.177893
7969, 123.256835, 230.597320, 1926.182982
7970, 125.584539, 234.952146, 1928.984525
7971, 51.010569, 256.447447, 1926.182982
7972, 51.973903, 261.290453, 1928.984525
7973, 52.537928, 264.126001, 1921.276777
7974, 51.492236, 258.868950, 1927.583754
7975, 53.455649, 268.739694, 1924.177893
7976, 75.901184, 250.212672, 1926.182982
7977, 77.334577, 254.937935, 1928.984525
7978, 0.000000, 261.471550, 1926.182982
7979, 0.000000, 266.409436, 1928.984525
7980, 0.000000, 269.300535, 1921.276777
7981, 0.000000, 263.940493, 1927.583754
7982, 0.000000, 274.004616, 1924.177893
7983, 25.628694, 260.212493, 1926.182982
7984, 26.112691, 265.126601, 1928.984525
7985, 271.347322, 0.000000, 1931.786068
7986, 266.133459, 52.937236, 1931.786068
7987, 268.878379, 0.000000, 1930.385296
7988, 278.708697, 0.000000, 1927.079010
7989, 263.711956, 52.455570, 1930.385296
7990, 273.353387, 54.373369, 1927.079010
7991, 270.040710, 26.596689, 1931.786068
7992, 250.692237, 103.840125, 1931.786068
7993, 248.411231, 102.895301, 1930.385296
7994, 257.493260, 106.657201, 1927.079010
7995, 259.663197, 78.767970, 1931.786068
7996, 225.617053, 150.752495, 1931.786068
7997, 223.564201, 149.380824, 1930.385296
7998, 231.737812, 154.842256, 1927.079010
7999, 239.306973, 127.912242, 1931.786068
8000, 191.871531, 191.871531, 1931.786068
8001, 190.125725, 190.125725, 1930.385296
8002, 197.076809, 197.076809, 1927.079010
8003, 209.754316, 172.140919, 1931.786068
8004, 150.752495, 225.617053, 1931.786068
8005, 149.380824, 223.564201, 1930.385296
8006, 154.842256, 231.737812, 1927.079010
8007, 172.140919, 209.754316, 1931.786068
8008, 103.840125, 250.692237, 1931.786068
8009, 102.895301, 248.411231, 1930.385296
8010, 106.657201, 257.493260, 1927.079010
8011, 127.912242, 239.306973, 1931.786068
8012, 52.937236, 266.133459, 1931.786068
8013, 52.455570, 263.711956, 1930.385296
8014, 54.373369, 273.353387, 1927.079010
8015, 78.767970, 259.663197, 1931.786068
8016, 0.000000, 271.347322, 1931.786068
8017, 0.000000, 268.878379, 1930.385296
8018, 0.000000, 278.708697, 1927.079010
8019, 26.596689, 270.040710, 1931.786068
8020, 276.285208, 0.000000, 1934.587610
8021, 270.976465, 53.900570, 1934.587610
8022, 273.816265, 0.000000, 1933.186839
8023, 283.412777, 0.000000, 1929.980126
8024, 268.554962, 53.418903, 1933.186839
8025, 277.967080, 55.291090, 1929.980126
8026, 274.954819, 27.080686, 1934.587610
8027, 255.254249, 105.729772, 1934.587610
8028, 252.973243, 104.784948, 1933.186839
8029, 261.839264, 108.457374, 1929.980126
8030, 264.388460, 80.201362, 1934.587610
8031, 229.722755, 153.495837, 1934.587610
8032, 227.669904, 152.124166, 1933.186839
8033, 235.649112, 157.455703, 1929.980126
8034, 243.661800, 130.239946, 1934.587610
8035, 195.363144, 195.363144, 1934.587610
8036, 193.617338, 193.617338, 1933.186839
8037, 200.403097, 200.403097, 1929.980126
8038, 213.571354, 175.273481, 1934.587610
8039, 153.495837, 229.722755, 1934.587610
8040, 152.124166, 227.669904, 1933.186839
8041, 157.455703, 235.649112, 1929.980126
8042, 175.273481, 213.571354, 1934.587610
8043, 105.729772, 255.254249, 1934.587610
8044, 104.784948, 252.973243, 1933.186839
8045, 108.457374, 261.839264, 1929.980126
8046, 130.239946, 243.661800, 1934.587610
8047, 53.900570, 270.976465, 1934.587610
8048, 53.418903, 268.554962, 1933.186839
8049, 55.291090, 277.967080, 1929.980126
8050, 80.201362, 264.388460, 1934.587610
8051, 0.000000, 276.285208, 1934.587610
8052, 0.000000, 273.816265, 1933.186839
8053, 0.000000, 283.412777, 1929.980126
8054, 27.080686, 274.954819, 1934.587610
8055, 281.223094, 0.000000, 1937.389153
8056, 275.819471, 54.863904, 1937.389153
8057, 278.754151, 0.000000, 1935.988382
8058, 288.116858, 0.000000, 1932.881242
8059, 273.397968, 54.382237, 1935.988382
8060, 282.580773, 56.208811, 1932.881242
8061, 279.868928, 27.564684, 1937.389153
8062, 259.816261, 107.619419, 1937.389153
8063, 257.535255, 106.674595, 1935.988382
8064, 266.185268, 110.257548, 1932.881242
8065, 269.113722, 81.634755, 1937.389153
8066, 233.828457, 156.239180, 1937.389153
8067, 231.775606, 154.867509, 1935.988382
8068, 239.560412, 160.069150, 1932.881242
8069, 248.016627, 132.567649, 1937.389153
8070, 198.854757, 198.854757, 1937.389153
8071, 197.108951, 197.108951, 1935.988382
8072, 203.729384, 203.729384, 1932.881242
8073, 217.388392, 178.406042, 1937.389153
8074, 156.239180, 233.828457, 1937.389153
8075, 154.867509, 231.775606, 1935.988382
8076, 160.069150, 239.560412, 1932.881242
8077, 178.406042, 217.388392, 1937.389153
8078, 107.619419, 259.816261, 1937.389153
8079, 106.674595, 257.535255, 1935.988382
8080, 110.257548, 266.185268, 1932.881242
8081, 132.567649, 248.016627, 1937.389153
8082, 54.863904, 275.819471, 1937.389153
8083, 54.382237, 273.397968, 1935.988382
8084, 56.208811, 282.580773, 1932.881242
8085, 81.634755, 269.113722, 1937.389153
8086, 0.000000, 281.223094, 1937.389153
8087, 0.000000, 278.754151, 1935.988382
8088, 0.000000, 288.116858, 1932.881242
8089, 27.564684, 279.868928, 1937.389153
8090, 245.544197, 0.000000, 1935.550218
8091, 250.964991, 0.000000, 1938.181967
8092, 240.826134, 47.903296, 1935.550218
8093, 246.142769, 48.960841, 1938.181967
8094, 253.551315, 0.000000, 1930.940501
8095, 248.254594, 0.000000, 1936.866092
8096, 258.728328, 0.000000, 1933.652418
8097, 248.679398, 49.465408, 1930.940501
8098, 243.484452, 48.432069, 1936.866092
8099, 253.756935, 50.475393, 1933.652418
8100, 244.361835, 24.067540, 1935.550218
8101, 249.756526, 24.598871, 1938.181967
8102, 226.853258, 93.965696, 1935.550218
8103, 231.861418, 96.040144, 1938.181967
8104, 234.250871, 97.029888, 1930.940501
8105, 229.357338, 95.002920, 1936.866092
8106, 239.033806, 99.011044, 1933.652418
8107, 234.971146, 71.277718, 1935.550218
8108, 240.158523, 72.851291, 1938.181967
8109, 204.162538, 136.417047, 1935.550218
8110, 208.669764, 139.428678, 1938.181967
8111, 210.820214, 140.865563, 1930.940501
8112, 206.416151, 137.922863, 1936.866092
8113, 215.124742, 143.741757, 1933.652418
8114, 216.550649, 115.748733, 1935.550218
8115, 221.331362, 118.304078, 1938.181967
8116, 173.625967, 173.625967, 1935.550218
8117, 177.459047, 177.459047, 1938.181967
8118, 179.287854, 179.287854, 1930.940501
8119, 175.542507, 175.542507, 1936.866092
8120, 182.948555, 182.948555, 1933.652418
8121, 189.808231, 155.771590, 1935.550218
8122, 193.998561, 159.210505, 1938.181967
8123, 136.417047, 204.162538, 1935.550218
8124, 139.428678, 208.669764, 1938.181967
8125, 140.865563, 210.820214, 1930.940501
8126, 137.922863, 206.416151, 1936.866092
8127, 143.741757, 215.124742, 1933.652418
8128, 155.771590, 189.808231, 1935.550218
8129, 159.210505, 193.998561, 1938.181967
8130, 93.965696, 226.853258, 1935.550218
8131, 96.040144, 231.861418, 1938.181967
8132, 97.029888, 234.250871, 1930.940501
8133, 95.002920, 229.357338, 1936.866092
8134, 99.011044, 239.033806, 1933.652418
8135, 115.748733, 216.550649, 1935.550218
8136, 118.304078, 221.331362, 1938.181967
8137, 47.903296, 240.826134, 1935.550218
8138, 48.960841, 246.142769, 1938.181967
8139, 49.465408, 248.679398, 1930.940501
8140, 48.432069, 243.484452, 1936.866092
8141, 50.475393, 253.756935, 1933.652418
8142, 71.277718, 234.971146, 1935.550218
8143, 72.851291, 240.158523, 1938.181967
8144, 0.000000, 245.544197, 1935.550218
8145, 0.000000, 250.964991, 1938.181967
8146, 0.000000, 253.551315, 1930.940501
8147, 0.000000, 248.254594, 1936.866092
8148, 0.000000, 258.728328, 1933.652418
8149, 24.067540, 244.361835, 1935.550218
8150, 24.598871, 249.756526, 1938.181967
8151, 256.385785, 0.000000, 1940.813715
8152, 251.459404, 50.018385, 1940.813715
8153, 253.675388, 0.000000, 1939.497841
8154, 263.905340, 0.000000, 1936.364335
8155, 248.801086, 49.489613, 1939.497841
8156, 258.834473, 51.485378, 1936.364335
8157, 255.151217, 25.130201, 1940.813715
8158, 236.869579, 98.114592, 1940.813715
8159, 234.365499, 97.077368, 1939.497841
8160, 243.816742, 100.992201, 1936.364335
8161, 245.345899, 74.424865, 1940.813715
8162, 213.176989, 142.440310, 1940.813715
8163, 210.923376, 140.934494, 1939.497841
8164, 219.429271, 146.617951, 1936.364335
8165, 226.112075, 120.859422, 1940.813715
8166, 181.292127, 181.292127, 1940.813715
8167, 179.375587, 179.375587, 1939.497841
8168, 186.609255, 186.609255, 1936.364335
8169, 198.188892, 162.649420, 1940.813715
8170, 142.440310, 213.176989, 1940.813715
8171, 140.934494, 210.923376, 1939.497841
8172, 146.617951, 219.429271, 1936.364335
8173, 162.649420, 198.188892, 1940.813715
8174, 98.114592, 236.869579, 1940.813715
8175, 97.077368, 234.365499, 1939.497841
8176, 100.992201, 243.816742, 1936.364335
8177, 120.859422, 226.112075, 1940.813715
8178, 50.018385, 251.459404, 1940.813715
8179, 49.489613, 248.801086, 1939.497841
8180, 51.485378, 258.834473, 1936.364335
8181, 74.424865, 245.345899, 1940.813715
8182, 0.000000, 256.385785, 1940.813715
8183, 0.000000, 253.675388, 1939.497841
8184, 0.000000, 263.905340, 1936.364335
8185, 25.130201, 255.151217, 1940.813715
8186, 261.806578, 0.000000, 1943.445463
8187, 256.776039, 51.075930, 1943.445463
8188, 259.096182, 0.000000, 1942.129589
8189, 269.082352, 0.000000, 1939.076251
8190, 254.117721, 50.547158, 1942.129589
8191, 263.912010, 52.495363, 1939.076251
8192, 260.545908, 25.661532, 1943.445463
8193, 241.877739, 100.189040, 1943.445463
8194, 239.373659, 99.151816, 1942.129589
8195, 248.599678, 102.973358, 1939.076251
8196, 250.533275, 75.998438, 1943.445463
8197, 217.684214, 145.451942, 1943.445463
8198, 215.430602, 143.946126, 1942.129589
8199, 223.733799, 149.494145, 1939.076251
8200, 230.892789, 123.414767, 1943.445463
8201, 185.125207, 185.125207, 1943.445463
8202, 183.208667, 183.208667, 1942.129589
8203, 190.269956, 190.269956, 1939.076251
8204, 202.379222, 166.088335, 1943.445463
8205, 145.451942, 217.684214, 1943.445463
8206, 143.946126, 215.430602, 1942.129589
8207, 149.494145, 223.733799, 1939.076251
8208, 166.088335, 202.379222, 1943.445463
8209, 100.189040, 241.877739, 1943.445463
8210, 99.151816, 239.373659, 1942.129589
8211, 102.973358, 248.599678, 1939.076251
8212, 123.414767, 230.892789, 1943.445463
8213, 51.075930, 256.776039, 1943.445463
8214, 50.547158, 254.117721, 1942.129589
8215, 52.495363, 263.912010, 1939.076251
8216, 75.998438, 250.533275, 1943.445463
8217, 0.000000, 261.806578, 1943.445463
8218, 0.000000, 259.096182, 1942.129589
8219, 0.000000, 269.082352, 1939.076251
8220, 25.661532, 260.545908, 1943.445463
8221, 267.227372, 0.000000, 1946.077211
8222, 262.092673, 52.133474, 1946.077211
8223, 264.516975, 0.000000, 1944.761337
8224, 274.259365, 0.000000, 1941.788168
8225, 259.434356, 51.604702, 1944.761337
8226, 268.989548, 53.505348, 1941.788168
8227, 265.940599, 26.192863, 1946.077211
8228, 246.885900, 102.263488, 1946.077211
8229, 244.381820, 101.226264, 1944.761337
8230, 253.382614, 104.954515, 1941.788168
8231, 255.720651, 77.572012, 1946.077211
8232, 222.191440, 148.463573, 1946.077211
8233, 219.937827, 146.957758, 1944.761337
8234, 228.038328, 152.370339, 1941.788168
8235, 235.673502, 125.970111, 1946.077211
8236, 188.958287, 188.958287, 1946.077211
8237, 187.041747, 187.041747, 1944.761337
8238, 193.930657, 193.930657, 1941.788168
8239, 206.569552, 169.527250, 1946.077211
8240, 148.463573, 222.191440, 1946.077211
8241, 146.957758, 219.937827, 1944.761337
8242, 152.370339, 228.038328, 1941.788168
8243, 169.527250, 206.569552, 1946.077211
8244, 102.263488, 246.885900, 1946.077211
8245, 101.226264, 244.381820, 1944.761337
8246, 104.954515, 253.382614, 1941.788168
8247, 125.970111, 235.673502, 1946.077211
8248, 52.133474, 262.092673, 1946.077211
8249, 51.604702, 259.434356, 1944.761337
8250, 53.505348, 268.989548, 1941.788168
8251, 77.572012, 255.720651, 1946.077211
8252, 0.000000, 267.227372, 1946.077211
8253, 0.000000, 264.516975, 1944.761337
8254, 0.000000, 274.259365, 1941.788168
8255, 26.192863, 265.940599, 1946.077211
8256, 229.282381, 0.000000, 1944.323746
8257, 235.203159, 0.000000, 1946.823113
8258, 224.876784, 44.730773, 1944.323746
8259, 230.683796, 45.885860, 1946.823113
8260, 237.453643, 0.000000, 1940.011801
8261, 232.242770, 0.000000, 1945.573429
8262, 243.122442, 0.000000, 1942.572659
8263, 232.891038, 46.324908, 1940.011801
8264, 227.780290, 45.308317, 1945.573429
8265, 238.450912, 47.430835, 1942.572659
8266, 228.178323, 22.473603, 1944.323746
8267, 234.070592, 23.053941, 1946.823113
8268, 211.829299, 87.742568, 1944.323746
8269, 217.299385, 90.008352, 1946.823113
8270, 219.378561, 90.869575, 1940.011801
8271, 214.564342, 88.875460, 1945.573429
8272, 224.615848, 93.038930, 1942.572659
8273, 219.409558, 66.557162, 1944.323746
8274, 225.075390, 68.275873, 1946.823113
8275, 190.641332, 127.382466, 1944.323746
8276, 195.564279, 130.671874, 1946.823113
8277, 197.435489, 131.922176, 1940.011801
8278, 193.102806, 129.027170, 1945.573429
8279, 202.148922, 135.071592, 1942.572659
8280, 202.209007, 108.082966, 1944.323746
8281, 207.430667, 110.874002, 1946.823113
8282, 162.127126, 162.127126, 1944.323746
8283, 166.313749, 166.313749, 1946.823113
8284, 167.905081, 167.905081, 1940.011801
8285, 164.220437, 164.220437, 1945.573429
8286, 171.913527, 171.913527, 1942.572659
8287, 177.237677, 145.455202, 1944.323746
8288, 181.814501, 149.211305, 1946.823113
8289, 127.382466, 190.641332, 1944.323746
8290, 130.671874, 195.564279, 1946.823113
8291, 131.922176, 197.435489, 1940.011801
8292, 129.027170, 193.102806, 1945.573429
8293, 135.071592, 202.148922, 1942.572659
8294, 145.455202, 177.237677, 1944.323746
8295, 149.211305, 181.814501, 1946.823113
8296, 87.742568, 211.829299, 1944.323746
8297, 90.008352, 217.299385, 1946.823113
8298, 90.869575, 219.378561, 1940.011801
8299, 88.875460, 214.564342, 1945.573429
8300, 93.038930, 224.615848, 1942.572659
8301, 108.082966, 202.209007, 1944.323746
8302, 110.874002, 207.430667, 1946.823113
8303, 44.730773, 224.876784, 1944.323746
8304, 45.885860, 230.683796, 1946.823113
8305, 46.324908, 232.891038, 1940.011801
8306, 45.308317, 227.780290, 1945.573429
8307, 47.430835, 238.450912, 1942.572659
8308, 66.557162, 219.409558, 1944.323746
8309, 68.275873, 225.075390, 1946.823113
8310, 0.000000, 229.282381, 1944.323746
8311, 0.000000, 235.203159, 1946.823113
8312, 0.000000, 237.453643, 1940.011801
8313, 0.000000, 232.242770, 1945.573429
8314, 0.000000, 243.122442, 1942.572659
8315, 22.473603, 228.178323, 1944.323746
8316, 23.053941, 234.070592, 1946.823113
8317, 241.123938, 0.000000, 1949.322480
8318, 236.490809, 47.040947, 1949.322480
8319, 238.163548, 0.000000, 1948.072796
8320, 248.791240, 0.000000, 1945.133517
8321, 233.587302, 46.463403, 1948.072796
8322, 244.010786, 48.536763, 1945.133517
8323, 239.962860, 23.634279, 1949.322480
8324, 222.769471, 92.274136, 1949.322480
8325, 220.034428, 91.141244, 1948.072796
8326, 229.853135, 95.208286, 1945.133517
8327, 230.741222, 69.994584, 1949.322480
8328, 200.487227, 133.961282, 1949.322480
8329, 198.025753, 132.316578, 1948.072796
8330, 206.862356, 138.221007, 1945.133517
8331, 212.652328, 113.665037, 1949.322480
8332, 170.500371, 170.500371, 1949.322480
8333, 168.407060, 168.407060, 1948.072796
8334, 175.921973, 175.921973, 1945.133517
8335, 186.391324, 152.967407, 1949.322480
8336, 133.961282, 200.487227, 1949.322480
8337, 132.316578, 198.025753, 1948.072796
8338, 138.221007, 206.862356, 1945.133517
8339, 152.967407, 186.391324, 1949.322480
8340, 92.274136, 222.769471, 1949.322480
8341, 91.141244, 220.034428, 1948.072796
8342, 95.208286, 229.853135, 1945.133517
8343, 113.665037, 212.652328, 1949.322480
8344, 47.040947, 236.490809, 1949.322480
8345, 46.463403, 233.587302, 1948.072796
8346, 48.536763, 244.010786, 1945.133517
8347, 69.994584, 230.741222, 1949.322480
8348, 0.000000, 241.123938, 1949.322480
8349, 0.000000, 238.163548, 1948.072796
8350, 0.000000, 248.791240, 1945.133517
8351, 23.634279, 239.962860, 1949.322480
8352, 247.044716, 0.000000, 1951.821847
8353, 242.297821, 48.196033, 1951.821847
8354, 244.084327, 0.000000, 1950.572163
8355, 254.460039, 0.000000, 1947.694376
8356, 239.394315, 47.618490, 1950.572163
8357, 249.570660, 49.642691, 1947.694376
8358, 245.855128, 24.214617, 1951.821847
8359, 228.239557, 94.539920, 1951.821847
8360, 225.504514, 93.407028, 1950.572163
8361, 235.090421, 97.377641, 1947.694376
8362, 236.407053, 71.713296, 1951.821847
8363, 205.410174, 137.250690, 1951.821847
8364, 202.948701, 135.605986, 1950.572163
8365, 211.575790, 141.370423, 1947.694376
8366, 217.873988, 116.456073, 1951.821847
8367, 174.686994, 174.686994, 1951.821847
8368, 172.593683, 172.593683, 1950.572163
8369, 179.930419, 179.930419, 1947.694376
8370, 190.968148, 156.723509, 1951.821847
8371, 137.250690, 205.410174, 1951.821847
8372, 135.605986, 202.948701, 1950.572163
8373, 141.370423, 211.575790, 1947.694376
8374, 156.723509, 190.968148, 1951.821847
8375, 94.539920, 228.239557, 1951.821847
8376, 93.407028, 225.504514, 1950.572163
8377, 97.377641, 235.090421, 1947.694376
8378, 116.456073, 217.873988, 1951.821847
8379, 48.196033, 242.297821, 1951.821847
8380, 47.618490, 239.394315, 1950.572163
8381, 49.642691, 249.570660, 1947.694376
8382, 71.713296, 236.407053, 1951.821847
8383, 0.000000, 247.044716, 1951.821847
8384, 0.000000, 244.084327, 1950.572163
8385, 0.000000, 254.460039, 1947.694376
8386, 24.214617, 245.855128, 1951.821847
8387, 252.965494, 0.000000, 1954.321214
8388, 248.104833, 49.351120, 1954.321214
8389, 250.005105, 0.000000, 1953.071530
8390, 260.128837, 0.000000, 1950.255234
8391, 245.201327, 48.773576, 1953.071530
8392, 255.130534, 50.748619, 1950.255234
8393, 251.747396, 24.794954, 1954.321214
8394, 233.709643, 96.805704, 1954.321214
8395, 230.974600, 95.672812, 1953.071530
8396, 240.327708, 99.546996, 1950.255234
8397, 242.072885, 73.432007, 1954.321214
8398, 210.333122, 140.540099, 1954.321214
8399, 207.871648, 138.895395, 1953.071530
8400, 216.289223, 144.519839, 1950.255234
8401, 223.095649, 119.247109, 1954.321214
8402, 178.873617, 178.873617, 1954.321214
8403, 176.780305, 176.780305, 1953.071530
8404, 183.938865, 183.938865, 1950.255234
8405, 195.544972, 160.479611, 1954.321214
8406, 140.540099, 210.333122, 1954.321214
8407, 138.895395, 207.871648, 1953.071530
8408, 144.519839, 216.289223, 1950.255234
8409, 160.479611, 195.544972, 1954.321214
8410, 96.805704, 233.709643, 1954.321214
8411, 95.672812, 230.974600, 1953.071530
8412, 99.546996, 240.327708, 1950.255234
8413, 119.247109, 223.095649, 1954.321214
8414, 49.351120, 248.104833, 1954.321214
8415, 48.773576, 245.201327, 1953.071530
8416, 50.748619, 255.130534, 1950.255234
8417, 73.432007, 242.072885, 1954.321214
8418, 0.000000, 252.965494, 1954.321214
8419, 0.000000, 250.005105, 1953.071530
8420, 0.000000, 260.128837, 1950.255234
8421, 24.794954, 251.747396, 1954.321214
8422, 212.708771, 0.000000, 1952.492964
8423, 219.143143, 0.000000, 1954.895484
8424, 208.621632, 41.497423, 1952.492964
8425, 214.932369, 42.752706, 1954.895484
8426, 221.033163, 0.000000, 1948.484601
8427, 215.925957, 0.000000, 1953.694224
8428, 227.209063, 0.000000, 1950.930898
8429, 216.786073, 43.121431, 1948.484601
8430, 211.777000, 42.125064, 1953.694224
8431, 222.843304, 44.326289, 1950.930898
8432, 211.684520, 20.849105, 1952.492964
8433, 218.087909, 21.479784, 1954.895484
8434, 196.517280, 81.400123, 1952.492964
8435, 202.461864, 83.862450, 1954.895484
8436, 204.208016, 84.585730, 1948.484601
8437, 199.489572, 82.631286, 1953.694224
8438, 209.913803, 86.949144, 1950.930898
8439, 203.549603, 61.746097, 1952.492964
8440, 209.706913, 63.613896, 1954.895484
8441, 176.860880, 118.174662, 1952.492964
8442, 182.210864, 121.749407, 1954.895484
8443, 183.782359, 122.799446, 1948.484601
8444, 179.535872, 119.962034, 1953.694224
8445, 188.917431, 126.230592, 1950.930898
8446, 187.592388, 100.270221, 1952.492964
8447, 193.266998, 103.303362, 1954.895484
8448, 150.407815, 150.407815, 1952.492964
8449, 154.957602, 154.957602, 1954.895484
8450, 156.294049, 156.294049, 1948.484601
8451, 152.682708, 152.682708, 1953.694224
8452, 160.661069, 160.661069, 1950.930898
8453, 164.426104, 134.941016, 1952.492964
8454, 169.399940, 139.022938, 1954.895484
8455, 118.174662, 176.860880, 1952.492964
8456, 121.749407, 182.210864, 1954.895484
8457, 122.799446, 183.782359, 1948.484601
8458, 119.962034, 179.535872, 1953.694224
8459, 126.230592, 188.917431, 1950.930898
8460, 134.941016, 164.426104, 1952.492964
8461, 139.022938, 169.399940, 1954.895484
8462, 81.400123, 196.517280, 1952.492964
8463, 83.862450, 202.461864, 1954.895484
8464, 84.585730, 204.208016, 1948.484601
8465, 82.631286, 199.489572, 1953.694224
8466, 86.949144, 209.913803, 1950.930898
8467, 100.270221, 187.592388, 1952.492964
8468, 103.303362, 193.266998, 1954.895484
8469, 41.497423, 208.621632, 1952.492964
8470, 42.752706, 214.932369, 1954.895484
8471, 43.121431, 216.786073, 1948.484601
8472, 42.125064, 211.777000, 1953.694224
8473, 44.326289, 222.843304, 1950.930898
8474, 61.746097, 203.549603, 1952.492964
8475, 63.613896, 209.706913, 1954.895484
8476, 0.000000, 212.708771, 1952.492964
8477, 0.000000, 219.143143, 1954.895484
8478, 0.000000, 221.033163, 1948.484601
8479, 0.000000, 215.925957, 1953.694224
8480, 0.000000, 227.209063, 1950.930898
8481, 20.849105, 211.684520, 1952.492964
8482, 21.479784, 218.087909, 1954.895484
8483, 225.577515, 0.000000, 1957.298005
8484, 221.243106, 44.007990, 1957.298005
8485, 222.360329, 0.000000, 1956.096745
8486, 233.384962, 0.000000, 1953.377195
8487, 218.087737, 43.380348, 1956.096745
8488, 228.900535, 45.531147, 1953.377195
8489, 224.491297, 22.110463, 1957.298005
8490, 208.406449, 86.324778, 1957.298005
8491, 205.434157, 85.093614, 1956.096745
8492, 215.619590, 89.312558, 1953.377195
8493, 215.864222, 65.481696, 1957.298005
8494, 187.560849, 125.324152, 1957.298005
8495, 184.885856, 123.536780, 1956.096745
8496, 194.052504, 129.661738, 1953.377195
8497, 198.941607, 106.336504, 1957.298005
8498, 159.507390, 159.507390, 1957.298005
8499, 157.232496, 157.232496, 1956.096745
8500, 165.028089, 165.028089, 1953.377195
8501, 174.373777, 143.104860, 1957.298005
8502, 125.324152, 187.560849, 1957.298005
8503, 123.536780, 184.885856, 1956.096745
8504, 129.661738, 194.052504, 1953.377195
8505, 143.104860, 174.373777, 1957.298005
8506, 86.324778, 208.406449, 1957.298005
8507, 85.093614, 205.434157, 1956.096745
8508, 89.312558, 215.619590, 1953.377195
8509, 106.336504, 198.941607, 1957.298005
8510, 44.007990, 221.243106, 1957.298005
8511, 43.380348, 218.087737, 1956.096745
8512, 45.531147, 228.900535, 1953.377195
8513, 65.481696, 215.864222, 1957.298005
8514, 0.000000, 225.577515, 1957.298005
8515, 0.000000, 222.360329, 1956.096745
8516, 0.000000, 233.384962, 1953.377195
8517, 22.110463, 224.491297, 1957.298005
8518, 232.011886, 0.000000, 1959.700526
8519, 227.553843, 45.263274, 1959.700526
8520, 228.794700, 0.000000, 1958.499265
8521, 239.560861, 0.000000, 1955.823492
8522, 224.398474, 44.635632, 1958.499265
8523, 234.957767, 46.736006, 1955.823492
8524, 230.894686, 22.741142, 1959.700526
8525, 214.351033, 88.787105, 1959.700526
8526, 211.378741, 87.555941, 1958.499265
8527, 221.325377, 91.675973, 1955.823492
8528, 222.021532, 67.349495, 1959.700526
8529, 192.910833, 128.898898, 1959.700526
8530, 190.235841, 127.111525, 1958.499265
8531, 199.187577, 133.092884, 1955.823492
8532, 204.616216, 109.369646, 1959.700526
8533, 164.057178, 164.057178, 1959.700526
8534, 161.782284, 161.782284, 1958.499265
8535, 169.395110, 169.395110, 1955.823492
8536, 179.347613, 147.186782, 1959.700526
8537, 128.898898, 192.910833, 1959.700526
8538, 127.111525, 190.235841, 1958.499265
8539, 133.092884, 199.187577, 1955.823492
8540, 147.186782, 179.347613, 1959.700526
8541, 88.787105, 214.351033, 1959.700526
8542, 87.555941, 211.378741, 1958.499265
8543, 91.675973, 221.325377, 1955.823492
8544, 109.369646, 204.616216, 1959.700526
8545, 45.263274, 227.553843, 1959.700526
8546, 44.635632, 224.398474, 1958.499265
8547, 46.736006, 234.957767, 1955.823492
8548, 67.349495, 222.021532, 1959.700526
8549, 0.000000, 232.011886, 1959.700526
8550, 0.000000, 228.794700, 1958.499265
8551, 0.000000, 239.560861, 1955.823492
8552, 22.741142, 230.894686, 1959.700526
8553, 238.446258, 0.000000, 1962.103046
8554, 233.864580, 46.518557, 1962.103046
8555, 235.229072, 0.000000, 1960.901786
8556, 245.736761, 0.000000, 1958.269789
8557, 230.709211, 45.890915, 1960.901786
8558, 241.014998, 47.940864, 1958.269789
8559, 237.298074, 23.371820, 1962.103046
8560, 220.295617, 91.249432, 1962.103046
8561, 217.323325, 90.018269, 1960.901786
8562, 227.031164, 94.039387, 1958.269789
8563, 228.178842, 69.217295, 1962.103046
8564, 198.260818, 132.473643, 1962.103046
8565, 195.585825, 130.686270, 1960.901786
8566, 204.322649, 136.524029, 1958.269789
8567, 210.290825, 112.402788, 1962.103046
8568, 168.606966, 168.606966, 1962.103046
8569, 166.332072, 166.332072, 1960.901786
8570, 173.762130, 173.762130, 1958.269789
8571, 184.321450, 151.268705, 1962.103046
8572, 132.473643, 198.260818, 1962.103046
8573, 130.686270, 195.585825, 1960.901786
8574, 136.524029, 204.322649, 1958.269789
8575, 151.268705, 184.321450, 1962.103046
8576, 91.249432, 220.295617, 1962.103046
8577, 90.018269, 217.323325, 1960.901786
8578, 94.039387, 227.031164, 1958.269789
8579, 112.402788, 210.290825, 1962.103046
8580, 46.518557, 233.864580, 1962.103046
8581, 45.890915, 230.709211, 1960.901786
8582, 47.940864, 241.014998, 1958.269789
8583, 69.217295, 228.178842, 1962.103046
8584, 0.000000, 238.446258, 1962.103046
8585, 0.000000, 235.229072, 1960.901786
8586, 0.000000, 245.736761, 1958.269789
8587, 23.371820, 237.298074, 1962.103046
8588, 195.845707, 0.000000, 1960.046859
8589, 202.806558, 0.000000, 1962.391023
8590, 192.082587, 38.207602, 1960.046859
8591, 198.909687, 39.565597, 1962.391023
8592, 204.312009, 0.000000, 1956.347483
8593, 199.326133, 0.000000, 1961.218941
8594, 211.008118, 0.000000, 1958.715927
8595, 200.386212, 39.859296, 1956.347483
8596, 195.496137, 38.886599, 1961.218941
8597, 206.953656, 41.165642, 1958.715927
8598, 194.902657, 19.196236, 1960.046859
8599, 201.829989, 19.878519, 1962.391023
8600, 180.937841, 74.946907, 1960.046859
8601, 187.368828, 77.610710, 1962.391023
8602, 188.759684, 78.186821, 1956.347483
8603, 184.153334, 76.278809, 1961.218941
8604, 194.946081, 80.749311, 1958.715927
8605, 187.412657, 56.851008, 1960.046859
8606, 194.073776, 58.871636, 1962.391023
8607, 162.839754, 108.806045, 1960.046859
8608, 168.627490, 112.673287, 1962.391023
8609, 169.879227, 113.509671, 1956.347483
8610, 165.733622, 110.739666, 1961.218941
8611, 175.446838, 117.229829, 1958.715927
8612, 172.720494, 92.321027, 1960.046859
8613, 178.859416, 95.602350, 1962.391023
8614, 138.483828, 138.483828, 1960.046859
8615, 143.405893, 143.405893, 1962.391023
8616, 144.470407, 144.470407, 1956.347483
8617, 140.944860, 140.944860, 1961.218941
8618, 149.205271, 149.205271, 1958.715927
8619, 151.390779, 124.243201, 1960.046859
8620, 156.771590, 128.659119, 1962.391023
8621, 108.806045, 162.839754, 1960.046859
8622, 112.673287, 168.627490, 1962.391023
8623, 113.509671, 169.879227, 1956.347483
8624, 110.739666, 165.733622, 1961.218941
8625, 117.229829, 175.446838, 1958.715927
8626, 124.243201, 151.390779, 1960.046859
8627, 128.659119, 156.771590, 1962.391023
8628, 74.946907, 180.937841, 1960.046859
8629, 77.610710, 187.368828, 1962.391023
8630, 78.186821, 188.759684, 1956.347483
8631, 76.278809, 184.153334, 1961.218941
8632, 80.749311, 194.946081, 1958.715927
8633, 92.321027, 172.720494, 1960.046859
8634, 95.602350, 178.859416, 1962.391023
8635, 38.207602, 192.082587, 1960.046859
8636, 39.565597, 198.909687, 1962.391023
8637, 39.859296, 200.386212, 1956.347483
8638, 38.886599, 195.496137, 1961.218941
8639, 41.165642, 206.953656, 1958.715927
8640, 56.851008, 187.412657, 1960.046859
8641, 58.871636, 194.073776, 1962.391023
8642, 0.000000, 195.845707, 1960.046859
8643, 0.000000, 202.806558, 1962.391023
8644, 0.000000, 204.312009, 1956.347483
8645, 0.000000, 199.326133, 1961.218941
8646, 0.000000, 211.008118, 1958.715927
8647, 19.196236, 194.902657, 1960.046859
8648, 19.878519, 201.829989, 1962.391023
8649, 209.767409, 0.000000, 1964.735187
8650, 205.736787, 40.923591, 1964.735187
8651, 206.286984, 0.000000, 1963.563105
8652, 217.704226, 0.000000, 1961.084371
8653, 202.323237, 40.244594, 1963.563105
8654, 213.521100, 42.471988, 1961.084371
8655, 208.757322, 20.560802, 1964.735187
8656, 193.799816, 80.274512, 1964.735187
8657, 190.584322, 78.942611, 1963.563105
8658, 201.132478, 83.311800, 1961.084371
8659, 200.734895, 60.892265, 1964.735187
8660, 174.415227, 116.540529, 1964.735187
8661, 171.521359, 114.606908, 1963.563105
8662, 181.014448, 120.949987, 1961.084371
8663, 184.998339, 98.883672, 1964.735187
8664, 148.327958, 148.327958, 1964.735187
8665, 145.866925, 145.866925, 1963.563105
8666, 153.940134, 153.940134, 1961.084371
8667, 162.152400, 133.075036, 1964.735187
8668, 116.540529, 174.415227, 1964.735187
8669, 114.606908, 171.521359, 1963.563105
8670, 120.949987, 181.014448, 1961.084371
8671, 133.075036, 162.152400, 1964.735187
8672, 80.274512, 193.799816, 1964.735187
8673, 78.942611, 190.584322, 1963.563105
8674, 83.311800, 201.132478, 1961.084371
8675, 98.883672, 184.998339, 1964.735187
8676, 40.923591, 205.736787, 1964.735187
8677, 40.244594, 202.323237, 1963.563105
8678, 42.471988, 213.521100, 1961.084371
8679, 60.892265, 200.734895, 1964.735187
8680, 0.000000, 209.767409, 1964.735187
8681, 0.000000, 206.286984, 1963.563105
8682, 0.000000, 217.704226, 1961.084371
8683, 20.560802, 208.757322, 1964.735187
8684, 216.728261, 0.000000, 1967.079351
8685, 212.563888, 42.281586, 1967.079351
8686, 213.247835, 0.000000, 1965.907269
8687, 224.400334, 0.000000, 1963.452814
8688, 209.150338, 41.602589, 1965.907269
8689, 220.088544, 43.778333, 1963.452814
8690, 215.684655, 21.243084, 1967.079351
8691, 200.230804, 82.938315, 1967.079351
8692, 197.015310, 81.606413, 1965.907269
8693, 207.318876, 85.874290, 1963.452814
8694, 207.396014, 62.912893, 1967.079351
8695, 180.202963, 120.407770, 1967.079351
8696, 177.309095, 118.474149, 1965.907269
8697, 186.582059, 124.670146, 1963.452814
8698, 191.137262, 102.164995, 1967.079351
8699, 153.250023, 153.250023, 1967.079351
8700, 150.788990, 150.788990, 1965.907269
8701, 158.674998, 158.674998, 1963.452814
8702, 167.533211, 137.490953, 1967.079351
8703, 120.407770, 180.202963, 1967.079351
8704, 118.474149, 177.309095, 1965.907269
8705, 124.670146, 186.582059, 1963.452814
8706, 137.490953, 167.533211, 1967.079351
8707, 82.938315, 200.230804, 1967.079351
8708, 81.606413, 197.015310, 1965.907269
8709, 85.874290, 207.318876, 1963.452814
8710, 102.164995, 191.137262, 1967.079351
8711, 42.281586, 212.563888, 1967.079351
8712, 41.602589, 209.150338, 1965.907269
8713, 43.778333, 220.088544, 1963.452814
8714, 62.912893, 207.396014, 1967.079351
8715, 0.000000, 216.728261, 1967.079351
8716, 0.000000, 213.247835, 1965.907269
8717, 0.000000, 224.400334, 1963.452814
8718, 21.243084, 215.684655, 1967.079351
8719, 223.689112, 0.000000, 1969.423515
8720, 219.390988, 43.639581, 1969.423515
8721, 220.208686, 0.000000, 1968.251433
8722, 231.096442, 0.000000, 1965.821258
8723, 215.977438, 42.960583, 1968.251433
8724, 226.655989, 45.084679, 1965.821258
8725, 222.611987, 21.925367, 1969.423515
8726, 206.661792, 85.602117, 1969.423515
8727, 203.446298, 84.270216, 1968.251433
8728, 213.505273, 88.436780, 1965.821258
8729, 214.057134, 64.933522, 1969.423515
8730, 185.990699, 124.275012, 1969.423515
8731, 183.096831, 122.341391, 1968.251433
8732, 192.149669, 128.390304, 1965.821258
8733, 197.276184, 105.446317, 1969.423515
8734, 158.172088, 158.172088, 1969.423515
8735, 155.711055, 155.711055, 1968.251433
8736, 163.409861, 163.409861, 1965.821258
8737, 172.914022, 141.906870, 1969.423515
8738, 124.275012, 185.990699, 1969.423515
8739, 122.341391, 183.096831, 1968.251433
8740, 128.390304, 192.149669, 1965.821258
8741, 141.906870, 172.914022, 1969.423515
8742, 85.602117, 206.661792, 1969.423515
8743, 84.270216, 203.446298, 1968.251433
8744, 88.436780, 213.505273, 1965.821258
8745, 105.446317, 197.276184, 1969.423515
8746, 43.639581, 219.390988, 1969.423515
8747, 42.960583, 215.977438, 1968.251433
8748, 45.084679, 226.655989, 1965.821258
8749, 64.933522, 214.057134, 1969.423515
8750, 0.000000, 223.689112, 1969.423515
8751, 0.000000, 220.208686, 1968.251433
8752, 0.000000, 231.096442, 1965.821258
8753, 21.925367, 222.611987, 1969.423515
8754, 178.712757, 0.000000, 1966.966945
8755, 186.211859, 0.000000, 1969.294376
8756, 175.278842, 34.865129, 1966.966945
8757, 182.633851, 36.328132, 1969.294376
8758, 187.311593, 0.000000, 1963.587055
8759, 182.462308, 0.000000, 1968.130660
8760, 194.540214, 0.000000, 1965.917526
8761, 183.712453, 36.542679, 1963.587055
8762, 178.956346, 35.596630, 1968.130660
8763, 190.802179, 37.952913, 1965.917526
8764, 177.852206, 17.516913, 1966.966945
8765, 185.315198, 18.251954, 1969.294376
8766, 165.109059, 68.390411, 1966.966945
8767, 172.037325, 71.260193, 1969.294376
8768, 173.053347, 71.681043, 1963.587055
8769, 168.573192, 69.825302, 1968.130660
8770, 179.731722, 74.447317, 1965.917526
8771, 171.017446, 51.877575, 1966.966945
8772, 178.193639, 54.054449, 1969.294376
8773, 148.594227, 99.287488, 1966.966945
8774, 154.829502, 103.453766, 1969.294376
8775, 155.743898, 104.064745, 1963.587055
8776, 151.711865, 101.370627, 1968.130660
8777, 161.754277, 108.080752, 1965.917526
8778, 157.610581, 84.244611, 1966.966945
8779, 164.224198, 87.779663, 1969.294376
8780, 126.369003, 126.369003, 1966.966945
8781, 131.671668, 131.671668, 1969.294376
8782, 132.449298, 132.449298, 1963.587055
8783, 129.020335, 129.020335, 1968.130660
8784, 137.560705, 137.560705, 1965.917526
8785, 138.146830, 113.374173, 1966.966945
8786, 143.943714, 118.131553, 1969.294376
8787, 99.287488, 148.594227, 1966.966945
8788, 103.453766, 154.829502, 1969.294376
8789, 104.064745, 155.743898, 1963.587055
8790, 101.370627, 151.711865, 1968.130660
8791, 108.080752, 161.754277, 1965.917526
8792, 113.374173, 138.146830, 1966.966945
8793, 118.131553, 143.943714, 1969.294376
8794, 68.390411, 165.109059, 1966.966945
8795, 71.260193, 172.037325, 1969.294376
8796, 71.681043, 173.053347, 1963.587055
8797, 69.825302, 168.573192, 1968.130660
8798, 74.447317, 179.731722, 1965.917526
8799, 84.244611, 157.610581, 1966.966945
8800, 87.779663, 164.224198, 1969.294376
8801, 34.865129, 175.278842, 1966.966945
8802, 36.328132, 182.633851, 1969.294376
8803, 36.542679, 183.712453, 1963.587055
8804, 35.596630, 178.956346, 1968.130660
8805, 37.952913, 190.802179, 1965.917526
8806, 51.877575, 171.017446, 1966.966945
8807, 54.054449, 178.193639, 1969.294376
8808, 0.000000, 178.712757, 1966.966945
8809, 0.000000, 186.211859, 1969.294376
8810, 0.000000, 187.311593, 1963.587055
8811, 0.000000, 182.462308, 1968.130660
8812, 0.000000, 194.540214, 1965.917526
8813, 17.516913, 177.852206, 1966.966945
8814, 18.251954, 185.315198, 1969.294376
8815, 193.710961, 0.000000, 1971.621806
8816, 189.988859, 37.791134, 1971.621806
8817, 189.961410, 0.000000, 1970.458091
8818, 201.768835, 0.000000, 1968.247996
8819, 186.311355, 37.059633, 1970.458091
8820, 197.891904, 39.363147, 1968.247996
8821, 192.778190, 18.986994, 1971.621806
8822, 178.965592, 74.129976, 1971.621806
8823, 175.501459, 72.695084, 1970.458091
8824, 186.410097, 77.213590, 1968.247996
8825, 185.369832, 56.231324, 1971.621806
8826, 161.064778, 107.620044, 1971.621806
8827, 157.947140, 105.536905, 1970.458091
8828, 167.764655, 112.096759, 1968.247996
8829, 170.837816, 91.314715, 1971.621806
8830, 136.974334, 136.974334, 1971.621806
8831, 134.323001, 134.323001, 1970.458091
8832, 142.672112, 142.672112, 1968.247996
8833, 149.740598, 122.888933, 1971.621806
8834, 107.620044, 161.064778, 1971.621806
8835, 105.536905, 157.947140, 1970.458091
8836, 112.096759, 167.764655, 1968.247996
8837, 122.888933, 149.740598, 1971.621806
8838, 74.129976, 178.965592, 1971.621806
8839, 72.695084, 175.501459, 1970.458091
8840, 77.213590, 186.410097, 1968.247996
8841, 91.314715, 170.837816, 1971.621806
8842, 37.791134, 189.988859, 1971.621806
8843, 37.059633, 186.311355, 1970.458091
8844, 39.363147, 197.891904, 1968.247996
8845, 56.231324, 185.369832, 1971.621806
8846, 0.000000, 193.710961, 1971.621806
8847, 0.000000, 189.961410, 1970.458091
8848, 0.000000, 201.768835, 1968.247996
8849, 18.986994, 192.778190, 1971.621806
8850, 201.210063, 0.000000, 1973.949237
8851, 197.343868, 39.254136, 1973.949237
8852, 197.460512, 0.000000, 1972.785522
8853, 208.997457, 0.000000, 1970.578466
8854, 193.666364, 38.522635, 1972.785522
8855, 204.981629, 40.773381, 1970.578466
8856, 200.241182, 19.722035, 1973.949237
8857, 185.893859, 76.999758, 1973.949237
8858, 182.429726, 75.564867, 1972.785522
8859, 193.088472, 79.979864, 1970.578466
8860, 192.546025, 58.408198, 1973.949237
8861, 167.300053, 111.786322, 1973.949237
8862, 164.182416, 109.703183, 1972.785522
8863, 173.775034, 116.112766, 1970.578466
8864, 177.451433, 94.849767, 1973.949237
8865, 142.277000, 142.277000, 1973.949237
8866, 139.625667, 139.625667, 1972.785522
8867, 147.783519, 147.783519, 1970.578466
8868, 155.537482, 127.646313, 1973.949237
8869, 111.786322, 167.300053, 1973.949237
8870, 109.703183, 164.182416, 1972.785522
8871, 116.112766, 173.775034, 1970.578466
8872, 127.646313, 155.537482, 1973.949237
8873, 76.999758, 185.893859, 1973.949237
8874, 75.564867, 182.429726, 1972.785522
8875, 79.979864, 193.088472, 1970.578466
8876, 94.849767, 177.451433, 1973.949237
8877, 39.254136, 197.343868, 1973.949237
8878, 38.522635, 193.666364, 1972.785522
8879, 40.773381, 204.981629, 1970.578466
8880, 58.408198, 192.546025, 1973.949237
8881, 0.000000, 201.210063, 1973.949237
8882, 0.000000, 197.460512, 1972.785522
8883, 0.000000, 208.997457, 1970.578466
8884, 19.722035, 200.241182, 1973.949237
8885, 208.709165, 0.000000, 1976.276667
8886, 204.698877, 40.717138, 1976.276667
8887, 204.959614, 0.000000, 1975.112952
8888, 216.226078, 0.000000, 1972.908936
8889, 201.021373, 39.985637, 1975.112952
8890, 212.071354, 42.183615, 1972.908936
8891, 207.704174, 20.457076, 1976.276667
8892, 192.822126, 79.869540, 1976.276667
8893, 189.357993, 78.434649, 1975.112952
8894, 199.766848, 82.746138, 1972.908936
8895, 199.722219, 60.585073, 1976.276667
8896, 173.535329, 115.952600, 1976.276667
8897, 170.417691, 113.869461, 1975.112952
8898, 179.785413, 120.128772, 1972.908936
8899, 184.065051, 98.384819, 1976.276667
8900, 147.579666, 147.579666, 1976.276667
8901, 144.928333, 144.928333, 1975.112952
8902, 152.894926, 152.894926, 1972.908936
8903, 161.334366, 132.403693, 1976.276667
8904, 115.952600, 173.535329, 1976.276667
8905, 113.869461, 170.417691, 1975.112952
8906, 120.128772, 179.785413, 1972.908936
8907, 132.403693, 161.334366, 1976.276667
8908, 79.869540, 192.822126, 1976.276667
8909, 78.434649, 189.357993, 1975.112952
8910, 82.746138, 199.766848, 1972.908936
8911, 98.384819, 184.065051, 1976.276667
8912, 40.717138, 204.698877, 1976.276667
8913, 39.985637, 201.021373, 1975.112952
8914, 42.183615, 212.071354, 1972.908936
8915, 60.585073, 199.722219, 1976.276667
8916, 0.000000, 208.709165, 1976.276667
8917, 0.000000, 204.959614, 1975.112952
8918, 0.000000, 216.226078, 1972.908936
8919, 20.457076, 207.704174, 1976.276667
8920, 161.335904, 0.000000, 1973.249207
8921, 169.381215, 0.000000, 1975.598393
8922, 158.235879, 31.475073, 1973.249207
8923, 166.126603, 33.044636, 1975.598393
8924, 170.053221, 0.000000, 1970.188024
8925, 165.358559, 0.000000, 1974.423800
8926, 177.824558, 0.000000, 1972.521506
8927, 166.785696, 33.175738, 1970.188024
8928, 162.181241, 32.259855, 1974.423800
8929, 174.407709, 34.691850, 1972.521506
8930, 160.559027, 15.813684, 1973.249207
8931, 168.565598, 16.602262, 1975.598393
8932, 149.054939, 61.740577, 1973.249207
8933, 156.487838, 64.819385, 1975.598393
8934, 157.108690, 65.076550, 1970.188024
8935, 152.771389, 63.279981, 1974.423800
8936, 164.288469, 68.050512, 1972.521506
8937, 154.388834, 46.833341, 1973.249207
8938, 162.087717, 49.168771, 1975.598393
8939, 134.145901, 89.633426, 1973.249207
8940, 140.835333, 94.103161, 1975.598393
8941, 141.394086, 94.476508, 1970.188024
8942, 137.490617, 91.868293, 1974.423800
8943, 147.855716, 98.794031, 1972.521506
8944, 142.285564, 76.053218, 1973.249207
8945, 149.380895, 79.845752, 1975.598393
8946, 114.081711, 114.081711, 1973.249207
8947, 119.770606, 119.770606, 1975.598393
8948, 120.245786, 120.245786, 1970.188024
8949, 116.926159, 116.926159, 1974.423800
8950, 125.740951, 125.740951, 1972.521506
8951, 124.714340, 102.350414, 1973.249207
8952, 130.933450, 107.454305, 1975.598393
8953, 89.633426, 134.145901, 1973.249207
8954, 94.103161, 140.835333, 1975.598393
8955, 94.476508, 141.394086, 1970.188024
8956, 91.868293, 137.490617, 1974.423800
8957, 98.794031, 147.855716, 1972.521506
8958, 102.350414, 124.714340, 1973.249207
8959, 107.454305, 130.933450, 1975.598393
8960, 61.740577, 149.054939, 1973.249207
8961, 64.819385, 156.487838, 1975.598393
8962, 65.076550, 157.108690, 1970.188024
8963, 63.279981, 152.771389, 1974.423800
8964, 68.050512, 164.288469, 1972.521506
8965, 76.053218, 142.285564, 1973.249207
8966, 79.845752, 149.380895, 1975.598393
8967, 31.475073, 158.235879, 1973.249207
8968, 33.044636, 166.126603, 1975.598393
8969, 33.175738, 166.785696, 1970.188024
8970, 32.259855, 162.181241, 1974.423800
8971, 34.691850, 174.407709, 1972.521506
8972, 46.833341, 154.388834, 1973.249207
8973, 49.168771, 162.087717, 1975.598393
8974, 0.000000, 161.335904, 1973.249207
8975, 0.000000, 169.381215, 1975.598393
8976, 0.000000, 170.053221, 1970.188024
8977, 0.000000, 165.358559, 1974.423800
8978, 0.000000, 177.824558, 1972.521506
8979, 15.813684, 160.559027, 1973.249207
8980, 16.602262, 168.565598, 1975.598393
8981, 177.426527, 0.000000, 1977.947578
8982, 174.017326, 34.614198, 1977.947578
8983, 173.403871, 0.000000, 1976.772985
8984, 185.595895, 0.000000, 1974.854989
8985, 170.071964, 33.829417, 1976.772985
8986, 182.029722, 36.207963, 1974.854989
8987, 176.572169, 17.390841, 1977.947578
8988, 163.920736, 67.898192, 1977.947578
8989, 160.204287, 66.358788, 1976.772985
8990, 171.468248, 71.024474, 1974.854989
8991, 169.786600, 51.504202, 1977.947578
8992, 147.524765, 98.572897, 1977.947578
8993, 144.180049, 96.338029, 1976.772985
8994, 154.317347, 103.111554, 1974.854989
8995, 156.476227, 83.638286, 1977.947578
8996, 125.459500, 125.459500, 1977.947578
8997, 122.615053, 122.615053, 1976.772985
8998, 131.236116, 131.236116, 1974.854989
8999, 137.152560, 112.558197, 1977.947578
9000, 98.572897, 147.524765, 1977.947578
9001, 96.338029, 144.180049, 1976.772985
9002, 103.111554, 154.317347, 1974.854989
9003, 112.558197, 137.152560, 1977.947578
9004, 67.898192, 163.920736, 1977.947578
9005, 66.358788, 160.204287, 1976.772985
9006, 71.024474, 171.468248, 1974.854989
9007, 83.638286, 156.476227, 1977.947578
9008, 34.614198, 174.017326, 1977.947578
9009, 33.829417, 170.071964, 1976.772985
9010, 36.207963, 182.029722, 1974.854989
9011, 51.504202, 169.786600, 1977.947578
9012, 0.000000, 177.426527, 1977.947578
9013, 0.000000, 173.403871, 1976.772985
9014, 0.000000, 185.595895, 1974.854989
9015, 17.390841, 176.572169, 1977.947578
9016, 185.471838, 0.000000, 1980.296764
9017, 181.908049, 36.183761, 1980.296764
9018, 181.449182, 0.000000, 1979.122171
9019, 193.367231, 0.000000, 1977.188472
9020, 177.962687, 35.398979, 1979.122171
9021, 189.651734, 37.724075, 1977.188472
9022, 184.578741, 18.179419, 1980.296764
9023, 171.353635, 70.977000, 1980.296764
9024, 167.637186, 69.437596, 1979.122171
9025, 178.648027, 73.998436, 1977.188472
9026, 177.485483, 53.839633, 1980.296764
9027, 154.214197, 103.042632, 1980.296764
9028, 150.869481, 100.807765, 1979.122171
9029, 160.778977, 107.429078, 1977.188472
9030, 163.571558, 87.430819, 1980.296764
9031, 131.148394, 131.148394, 1980.296764
9032, 128.303947, 128.303947, 1979.122171
9033, 136.731281, 136.731281, 1977.188472
9034, 143.371670, 117.662089, 1980.296764
9035, 103.042632, 154.214197, 1980.296764
9036, 100.807765, 150.869481, 1979.122171
9037, 107.429078, 160.778977, 1977.188472
9038, 117.662089, 143.371670, 1980.296764
9039, 70.977000, 171.353635, 1980.296764
9040, 69.437596, 167.637186, 1979.122171
9041, 73.998436, 178.648027, 1977.188472
9042, 87.430819, 163.571558, 1980.296764
9043, 36.183761, 181.908049, 1980.296764
9044, 35.398979, 177.962687, 1979.122171
9045, 37.724075, 189.651734, 1977.188472
9046, 53.839633, 177.485483, 1980.296764
9047, 0.000000, 185.471838, 1980.296764
9048, 0.000000, 181.449182, 1979.122171
9049, 0.000000, 193.367231, 1977.188472
9050, 18.179419, 184.578741, 1980.296764
9051, 193.517150, 0.000000, 1982.645949
9052, 189.798772, 37.753323, 1982.645949
9053, 189.494494, 0.000000, 1981.471356
9054, 201.138568, 0.000000, 1979.521955
9055, 185.853410, 36.968542, 1981.471356
9056, 197.273747, 39.240188, 1979.521955
9057, 192.585312, 18.967998, 1982.645949
9058, 178.786534, 74.055807, 1982.645949
9059, 175.070084, 72.516403, 1981.471356
9060, 185.827806, 76.972398, 1979.521955
9061, 185.184366, 56.175063, 1982.645949
9062, 160.903629, 107.512368, 1982.645949
9063, 157.558913, 105.277500, 1981.471356
9064, 167.240607, 111.746601, 1979.521955
9065, 170.666889, 91.223353, 1982.645949
9066, 136.837289, 136.837289, 1982.645949
9067, 133.992842, 133.992842, 1981.471356
9068, 142.226445, 142.226445, 1979.521955
9069, 149.590780, 122.765980, 1982.645949
9070, 107.512368, 160.903629, 1982.645949
9071, 105.277500, 157.558913, 1981.471356
9072, 111.746601, 167.240607, 1979.521955
9073, 122.765980, 149.590780, 1982.645949
9074, 74.055807, 178.786534, 1982.645949
9075, 72.516403, 175.070084, 1981.471356
9076, 76.972398, 185.827806, 1979.521955
9077, 91.223353, 170.666889, 1982.645949
9078, 37.753323, 189.798772, 1982.645949
9079, 36.968542, 185.853410, 1981.471356
9080, 39.240188, 197.273747, 1979.521955
9081, 56.175063, 185.184366, 1982.645949
9082, 0.000000, 193.517150, 1982.645949
9083, 0.000000, 189.494494, 1981.471356
9084, 0.000000, 201.138568, 1979.521955
9085, 18.967998, 192.585312, 1982.645949
9086, 150.000000, 0.000000, 1983.517254
9087, 157.043881, 0.000000, 1984.797840
9088, 147.117792, 29.263548, 1983.517254
9089, 154.026327, 30.637741, 1984.797840
9090, 152.563742, 0.000000, 1976.149464
9091, 153.521941, 0.000000, 1984.157547
9092, 160.884709, 0.000000, 1978.524545
9093, 149.632273, 29.763710, 1976.149464
9094, 150.572059, 29.950645, 1984.157547
9095, 157.793354, 31.387050, 1978.524545
9096, 149.277709, 14.702571, 1983.517254
9097, 156.287672, 15.392992, 1984.797840
9098, 138.581930, 57.402515, 1983.517254
9099, 145.089627, 60.098091, 1984.797840
9100, 140.950519, 58.383617, 1976.149464
9101, 141.835779, 58.750303, 1984.157547
9102, 148.638089, 61.567913, 1978.524545
9103, 143.541050, 43.542702, 1983.517254
9104, 150.281624, 45.587432, 1984.797840
9105, 124.720442, 83.335535, 1983.517254
9106, 130.577215, 87.248906, 1984.797840
9107, 126.852116, 84.759874, 1976.149464
9108, 127.648828, 85.292220, 1984.157547
9109, 133.770746, 89.382755, 1978.524545
9110, 132.288190, 70.709511, 1983.517254
9111, 138.500338, 74.029973, 1984.797840
9112, 106.066017, 106.066017, 1983.517254
9113, 111.046793, 111.046793, 1984.797840
9114, 107.878857, 107.878857, 1976.149464
9115, 108.556405, 108.556405, 1984.157547
9116, 113.762669, 113.762669, 1978.524545
9117, 115.951568, 95.158993, 1983.517254
9118, 121.396562, 99.627583, 1984.797840
9119, 83.335535, 124.720442, 1983.517254
9120, 87.248906, 130.577215, 1984.797840
9121, 84.759874, 126.852116, 1976.149464
9122, 85.292220, 127.648828, 1984.157547
9123, 89.382755, 133.770746, 1978.524545
9124, 95.158993, 115.951568, 1983.517254
9125, 99.627583, 121.396562, 1984.797840
9126, 57.402515, 138.581930, 1983.517254
9127, 60.098091, 145.089627, 1984.797840
9128, 58.383617, 140.950519, 1976.149464
9129, 58.750303, 141.835779, 1984.157547
9130, 61.567913, 148.638089, 1978.524545
9131, 70.709511, 132.288190, 1983.517254
9132, 74.029973, 138.500338, 1984.797840
9133, 29.263548, 147.117792, 1983.517254
9134, 30.637741, 154.026327, 1984.797840
9135, 29.763710, 149.632273, 1976.149464
9136, 29.950645, 150.572059, 1984.157547
9137, 31.387050, 157.793354, 1978.524545
9138, 43.542702, 143.541050, 1983.517254
9139, 45.587432, 150.281624, 1984.797840
9140, 0.000000, 150.000000, 1983.517254
9141, 0.000000, 157.043881, 1984.797840
9142, 0.000000, 152.563742, 1976.149464
9143, 0.000000, 153.521941, 1984.157547
9144, 0.000000, 160.884709, 1978.524545
9145, 14.702571, 149.277709, 1983.517254
9146, 15.392992, 156.287672, 1984.797840
9147, 164.087762, 0.000000, 1986.078427
9148, 160.934862, 32.011934, 1986.078427
9149, 160.565822, 0.000000, 1985.438134
9150, 169.205675, 0.000000, 1980.899625
9151, 157.480594, 31.324838, 1985.438134
9152, 165.954435, 33.010390, 1980.899625
9153, 163.297635, 16.083413, 1986.078427
9154, 151.597325, 62.793668, 1986.078427
9155, 148.343476, 61.445880, 1985.438134
9156, 156.325660, 64.752208, 1980.899625
9157, 157.022198, 47.632163, 1986.078427
9158, 136.433988, 91.162276, 1986.078427
9159, 133.505601, 89.205591, 1985.438134
9160, 140.689377, 94.005636, 1980.899625
9161, 144.712487, 77.350436, 1986.078427
9162, 116.027569, 116.027569, 1986.078427
9163, 113.537181, 113.537181, 1985.438134
9164, 119.646480, 119.646480, 1980.899625
9165, 126.841555, 104.096174, 1986.078427
9166, 91.162276, 136.433988, 1986.078427
9167, 89.205591, 133.505601, 1985.438134
9168, 94.005636, 140.689377, 1980.899625
9169, 104.096174, 126.841555, 1986.078427
9170, 62.793668, 151.597325, 1986.078427
9171, 61.445880, 148.343476, 1985.438134
9172, 64.752208, 156.325660, 1980.899625
9173, 77.350436, 144.712487, 1986.078427
9174, 32.011934, 160.934862, 1986.078427
9175, 31.324838, 157.480594, 1985.438134
9176, 33.010390, 165.954435, 1980.899625
9177, 47.632163, 157.022198, 1986.078427
9178, 0.000000, 164.087762, 1986.078427
9179, 0.000000, 160.565822, 1985.438134
9180, 0.000000, 169.205675, 1980.899625
9181, 16.083413, 163.297635, 1986.078427
9182, 171.131643, 0.000000, 1987.359013
9183, 167.843397, 33.386127, 1987.359013
9184, 167.609703, 0.000000, 1986.718720
9185, 177.526641, 0.000000, 1983.274706
9186, 164.389129, 32.699031, 1986.718720
9187, 174.115517, 34.633730, 1983.274706
9188, 170.307597, 16.773834, 1987.359013
9189, 158.105022, 65.489245, 1987.359013
9190, 154.851174, 64.141456, 1986.718720
9191, 164.013230, 67.936504, 1983.274706
9192, 163.762772, 49.676894, 1987.359013
9193, 142.290761, 95.075647, 1987.359013
9194, 139.362374, 93.118962, 1986.718720
9195, 147.608008, 98.628517, 1983.274706
9196, 150.924635, 80.670898, 1987.359013
9197, 121.008345, 121.008345, 1987.359013
9198, 118.517957, 118.517957, 1986.718720
9199, 125.530292, 125.530292, 1983.274706
9200, 132.286549, 108.564765, 1987.359013
9201, 95.075647, 142.290761, 1987.359013
9202, 93.118962, 139.362374, 1986.718720
9203, 98.628517, 147.608008, 1983.274706
9204, 108.564765, 132.286549, 1987.359013
9205, 65.489245, 158.105022, 1987.359013
9206, 64.141456, 154.851174, 1986.718720
9207, 67.936504, 164.013230, 1983.274706
9208, 80.670898, 150.924635, 1987.359013
9209, 33.386127, 167.843397, 1987.359013
9210, 32.699031, 164.389129, 1986.718720
9211, 34.633730, 174.115517, 1983.274706
9212, 49.676894, 163.762772, 1987.359013
9213, 0.000000, 171.131643, 1987.359013
9214, 0.000000, 167.609703, 1986.718720
9215, 0.000000, 177.526641, 1983.274706
9216, 16.773834, 170.307597, 1987.359013
9217, 178.175524, 0.000000, 1988.639600
9218, 174.751931, 34.760320, 1988.639600
9219, 174.653584, 0.000000, 1987.999307
9220, 185.847607, 0.000000, 1985.649787
9221, 171.297664, 34.073224, 1987.999307
9222, 182.276598, 36.257070, 1985.649787
9223, 177.317560, 17.464255, 1988.639600
9224, 164.612720, 68.184821, 1988.639600
9225, 161.358871, 66.837033, 1987.999307
9226, 171.700801, 71.120800, 1985.649787
9227, 170.503346, 51.721625, 1988.639600
9228, 148.147534, 98.989017, 1988.639600
9229, 145.219147, 97.032332, 1987.999307
9230, 154.526638, 103.251399, 1985.649787
9231, 157.136784, 83.991361, 1988.639600
9232, 125.989121, 125.989121, 1988.639600
9233, 123.498733, 123.498733, 1987.999307
9234, 131.414103, 131.414103, 1985.649787
9235, 137.731543, 113.033356, 1988.639600
9236, 98.989017, 148.147534, 1988.639600
9237, 97.032332, 145.219147, 1987.999307
9238, 103.251399, 154.526638, 1985.649787
9239, 113.033356, 137.731543, 1988.639600
9240, 68.184821, 164.612720, 1988.639600
9241, 66.837033, 161.358871, 1987.999307
9242, 71.120800, 171.700801, 1985.649787
9243, 83.991361, 157.136784, 1988.639600
9244, 34.760320, 174.751931, 1988.639600
9245, 34.073224, 171.297664, 1987.999307
9246, 36.257070, 182.276598, 1985.649787
9247, 51.721625, 170.503346, 1988.639600
9248, 0.000000, 178.175524, 1988.639600
9249, 0.000000, 174.653584, 1987.999307
9250, 0.000000, 185.847607, 1985.649787
9251, 17.464255, 177.317560, 1988.639600
9252, 150.000000, 0.000000, 2001.996016
9253, 155.000000, 0.000000, 2001.996016
9254, 147.117792, 29.263548, 2001.996016
9255, 152.021718, 30.239000, 2001.996016
9256, 150.000000, 0.000000, 1992.756635
9257, 152.500000, 0.000000, 2001.996016
9258, 155.551610, 0.000000, 1993.108992
9259, 147.117792, 29.263548, 1992.756635
9260, 149.569755, 29.751274, 2001.996016
9261, 152.562730, 30.346614, 1993.108992
9262, 149.277709, 14.702571, 2001.996016
9263, 154.253633, 15.192657, 2001.996016
9264, 138.581930, 57.402515, 2001.996016
9265, 143.201328, 59.315932, 2001.996016
9266, 138.581930, 57.402515, 1992.756635
9267, 140.891629, 58.359223, 2001.996016
9268, 143.710949, 59.527024, 1993.108992
9269, 143.541050, 43.542702, 2001.996016
9270, 148.325752, 44.994125, 2001.996016
9271, 124.720442, 83.335535, 2001.996016
9272, 128.877790, 86.113386, 2001.996016
9273, 124.720442, 83.335535, 1992.756635
9274, 126.799116, 84.724461, 2001.996016
9275, 129.336437, 86.419844, 1993.108992
9276, 132.288190, 70.709511, 2001.996016
9277, 136.697796, 73.066494, 2001.996016
9278, 106.066017, 106.066017, 2001.996016
9279, 109.601551, 109.601551, 2001.996016
9280, 106.066017, 106.066017, 1992.756635
9281, 107.833784, 107.833784, 2001.996016
9282, 109.991598, 109.991598, 1993.108992
9283, 115.951568, 95.158993, 2001.996016
9284, 119.816620, 98.330959, 2001.996016
9285, 83.335535, 124.720442, 2001.996016
9286, 86.113386, 128.877790, 2001.996016
9287, 83.335535, 124.720442, 1992.756635
9288, 84.724461, 126.799116, 2001.996016
9289, 86.419844, 129.336437, 1993.108992
9290, 95.158993, 115.951568, 2001.996016
9291, 98.330959, 119.816620, 2001.996016
9292, 57.402515, 138.581930, 2001.996016
9293, 59.315932, 143.201328, 2001.996016
9294, 57.402515, 138.581930, 1992.756635
9295, 58.359223, 140.891629, 2001.996016
9296, 59.527024, 143.710949, 1993.108992
9297, 70.709511, 132.288190, 2001.996016
9298, 73.066494, 136.697796, 2001.996016
9299, 29.263548, 147.117792, 2001.996016
9300, 30.239000, 152.021718, 2001.996016
9301, 29.263548, 147.117792, 1992.756635
9302, 29.751274, 149.569755, 2001.996016
9303, 30.346614, 152.562730, 1993.108992
9304, 43.542702, 143.541050, 2001.996016
9305, 44.994125, 148.325752, 2001.996016
9306, 0.000000, 150.000000, 2001.996016
9307, 0.000000, 155.000000, 2001.996016
9308, 0.000000, 150.000000, 1992.756635
9309, 0.000000, 152.500000, 2001.996016
9310, 0.000000, 155.551610, 1993.108992
9311, 14.702571, 149.277709, 2001.996016
9312, 15.192657, 154.253633, 2001.996016
9313, 160.000000, 0.000000, 2001.996016
9314, 156.925645, 31.214452, 2001.996016
9315, 157.500000, 0.000000, 2001.996016
9316, 161.103220, 0.000000, 1993.461349
9317, 154.473682, 30.726726, 2001.996016
9318, 158.007667, 31.429679, 1993.461349
9319, 159.229556, 15.682742, 2001.996016
9320, 147.820725, 61.229349, 2001.996016
9321, 145.511026, 60.272641, 2001.996016
9322, 148.839968, 61.651533, 1993.461349
9323, 153.110454, 46.445548, 2001.996016
9324, 133.035138, 88.891237, 2001.996016
9325, 130.956464, 87.502312, 2001.996016
9326, 133.952432, 89.504154, 1993.461349
9327, 141.107402, 75.423478, 2001.996016
9328, 113.137085, 113.137085, 2001.996016
9329, 111.369318, 111.369318, 2001.996016
9330, 113.917180, 113.917180, 1993.461349
9331, 123.681673, 101.502925, 2001.996016
9332, 88.891237, 133.035138, 2001.996016
9333, 87.502312, 130.956464, 2001.996016
9334, 89.504154, 133.952432, 1993.461349
9335, 101.502925, 123.681673, 2001.996016
9336, 61.229349, 147.820725, 2001.996016
9337, 60.272641, 145.511026, 2001.996016
9338, 61.651533, 148.839968, 1993.461349
9339, 75.423478, 141.107402, 2001.996016
9340, 31.214452, 156.925645, 2001.996016
9341, 30.726726, 154.473682, 2001.996016
9342, 31.429679, 158.007667, 1993.461349
9343, 46.445548, 153.110454, 2001.996016
9344, 0.000000, 160.000000, 2001.996016
9345, 0.000000, 157.500000, 2001.996016
9346, 0.000000, 161.103220, 1993.461349
9347, 15.682742, 159.229556, 2001.996016
9348, 165.000000, 0.000000, 2001.996016
9349, 161.829571, 32.189903, 2001.996016
9350, 162.500000, 0.000000, 2001.996016
9351, 166.654831, 0.000000, 1993.813706
9352, 159.377608, 31.702177, 2001.996016
9353, 163.452605, 32.512745, 1993.813706
9354, 164.205480, 16.172828, 2001.996016
9355, 152.440123, 63.142766, 2001.996016
9356, 150.130424, 62.186058, 2001.996016
9357, 153.968987, 63.776043, 1993.813706
9358, 157.895155, 47.896972, 2001.996016
9359, 137.192486, 91.669088, 2001.996016
9360, 135.113812, 90.280163, 2001.996016
9361, 138.568427, 92.588463, 1993.813706
9362, 145.517009, 77.780462, 2001.996016
9363, 116.672619, 116.672619, 2001.996016
9364, 114.904852, 114.904852, 2001.996016
9365, 117.842761, 117.842761, 1993.813706
9366, 127.546725, 104.674892, 2001.996016
9367, 91.669088, 137.192486, 2001.996016
9368, 90.280163, 135.113812, 2001.996016
9369, 92.588463, 138.568427, 1993.813706
9370, 104.674892, 127.546725, 2001.996016
9371, 63.142766, 152.440123, 2001.996016
9372, 62.186058, 150.130424, 2001.996016
9373, 63.776043, 153.968987, 1993.813706
9374, 77.780462, 145.517009, 2001.996016
9375, 32.189903, 161.829571, 2001.996016
9376, 31.702177, 159.377608, 2001.996016
9377, 32.512745, 163.452605, 1993.813706
9378, 47.896972, 157.895155, 2001.996016
9379, 0.000000, 165.000000, 2001.996016
9380, 0.000000, 162.500000, 2001.996016
9381, 0.000000, 166.654831, 1993.813706
9382, 16.172828, 164.205480, 2001.996016
9383, 170.000000, 0.000000, 2001.996016
9384, 166.733498, 33.165355, 2001.996016
9385, 167.500000, 0.000000, 2001.996016
9386, 172.206441, 0.000000, 1994.166063
9387, 164.281534, 32.677629, 2001.996016
9388, 168.897542, 33.595810, 1994.166063
9389, 169.181404, 16.662914, 2001.996016
9390, 157.059521, 65.056184, 2001.996016
9391, 154.749822, 64.099475, 2001.996016
9392, 159.098006, 65.900552, 1994.166063
9393, 162.679857, 49.348395, 2001.996016
9394, 141.349834, 94.446940, 2001.996016
9395, 139.271160, 93.058014, 2001.996016
9396, 143.184423, 95.672772, 1994.166063
9397, 149.926615, 80.137445, 2001.996016
9398, 120.208153, 120.208153, 2001.996016
9399, 118.440386, 118.440386, 2001.996016
9400, 121.768342, 121.768342, 1994.166063
9401, 131.411777, 107.846858, 2001.996016
9402, 94.446940, 141.349834, 2001.996016
9403, 93.058014, 139.271160, 2001.996016
9404, 95.672772, 143.184423, 1994.166063
9405, 107.846858, 131.411777, 2001.996016
9406, 65.056184, 157.059521, 2001.996016
9407, 64.099475, 154.749822, 2001.996016
9408, 65.900552, 159.098006, 1994.166063
9409, 80.137445, 149.926615, 2001.996016
9410, 33.165355, 166.733498, 2001.996016
9411, 32.677629, 164.281534, 2001.996016
9412, 33.595810, 168.897542, 1994.166063
9413, 49.348395, 162.679857, 2001.996016
9414, 0.000000, 170.000000, 2001.996016
9415, 0.000000, 167.500000, 2001.996016
9416, 0.000000, 172.206441, 1994.166063
9417, 16.662914, 169.181404, 2001.996016
9418, 150.000000, 0.000000, 2022.829349
9419, 155.000000, 0.000000, 2022.829349
9420, 147.117792, 29.263548, 2022.829349
9421, 152.021718, 30.239000, 2022.829349
9422, 150.000000, 0.000000, 2012.412683
9423, 152.500000, 0.000000, 2022.829349
9424, 155.000000, 0.000000, 2012.412683
9425, 147.117792, 29.263548, 2012.412683
9426, 149.569755, 29.751274, 2022.829349
9427, 152.021718, 30.239000, 2012.412683
9428, 149.277709, 14.702571, 2022.829349
9429, 154.253633, 15.192657, 2022.829349
9430, 138.581930, 57.402515, 2022.829349
9431, 143.201328, 59.315932, 2022.829349
9432, 138.581930, 57.402515, 2012.412683
9433, 140.891629, 58.359223, 2022.829349
9434, 143.201328, 59.315932, 2012.412683
9435, 143.541050, 43.542702, 2022.829349
9436, 148.325752, 44.994125, 2022.829349
9437, 124.720442, 83.335535, 2022.829349
9438, 128.877790, 86.113386, 2022.829349
9439, 124.720442, 83.335535, 2012.412683
9440, 126.799116, 84.724461, 2022.829349
9441, 128.877790, 86.113386, 2012.412683
9442, 132.288190, 70.709511, 2022.829349
9443, 136.697796, 73.066494, 2022.829349
9444, 106.066017, 106.066017, 2022.829349
9445, 109.601551, 109.601551, 2022.829349
9446, 106.066017, 106.066017, 2012.412683
9447, 107.833784, 107.833784, 2022.829349
9448, 109.601551, 109.601551, 2012.412683
9449, 115.951568, 95.158993, 2022.829349
9450, 119.816620, 98.330959, 2022.829349
9451, 83.335535, 124.720442, 2022.829349
9452, 86.113386, 128.877790, 2022.829349
9453, 83.335535, 124.720442, 2012.412683
9454, 84.724461, 126.799116, 2022.829349
9455, 86.113386, 128.877790, 2012.412683
9456, 95.158993, 115.951568, 2022.829349
9457, 98.330959, 119.816620, 2022.829349
9458, 57.402515, 138.581930, 2022.829349
9459, 59.315932, 143.201328, 2022.829349
9460, 57.402515, 138.581930, 2012.412683
9461, 58.359223, 140.891629, 2022.829349
9462, 59.315932, 143.201328, 2012.412683
9463, 70.709511, 132.288190, 2022.829349
9464, 73.066494, 136.697796, 2022.829349
9465, 29.263548, 147.117792, 2022.829349
9466, 30.239000, 152.021718, 2022.829349
9467, 29.263548, 147.117792, 2012.412683
9468, 29.751274, 149.569755, 2022.829349
9469, 30.239000, 152.021718, 2012.412683
9470, 43.542702, 143.541050, 2022.829349
9471, 44.994125, 148.325752, 2022.829349
9472, 0.000000, 150.000000, 2022.829349
9473, 0.000000, 155.000000, 2022.829349
9474, 0.000000, 150.000000, 2012.412683
9475, 0.000000, 152.500000, 2022.829349
9476, 0.000000, 155.000000, 2012.412683
9477, 14.702571, 149.277709, 2022.829349
9478, 15.192657, 154.253633, 2022.829349
9479, 160.000000, 0.000000, 2022.829349
9480, 156.925645, 31.214452, 2022.829349
9481, 157.500000, 0.000000, 2022.829349
9482, 160.000000, 0.000000, 2012.412683
9483, 154.473682, 30.726726, 2022.829349
9484, 156.925645, 31.214452, 2012.412683
9485, 159.229556, 15.682742, 2022.829349
9486, 147.820725, 61.229349, 2022.829349
9487, 145.511026, 60.272641, 2022.829349
9488, 147.820725, 61.229349, 2012.412683
9489, 153.110454, 46.445548, 2022.829349
9490, 133.035138, 88.891237, 2022.829349
9491, 130.956464, 87.502312, 2022.829349
9492, 133.035138, 88.891237, 2012.412683
9493, 141.107402, 75.423478, 2022.829349
9494, 113.137085, 113.137085, 2022.829349
9495, 111.369318, 111.369318, 2022.829349
9496, 113.137085, 113.137085, 2012.412683
9497, 123.681673, 101.502925, 2022.829349
9498, 88.891237, 133.035138, 2022.829349
9499, 87.502312, 130.956464, 2022.829349
9500, 88.891237, 133.035138, 2012.412683
9501, 101.502925, 123.681673, 2022.829349
9502, 61.229349, 147.820725, 2022.829349
9503, 60.272641, 145.511026, 2022.829349
9504, 61.229349, 147.820725, 2012.412683
9505, 75.423478, 141.107402, 2022.829349
9506, 31.214452, 156.925645, 2022.829349
9507, 30.726726, 154.473682, 2022.829349
9508, 31.214452, 156.925645, 2012.412683
9509, 46.445548, 153.110454, 2022.829349
9510, 0.000000, 160.000000, 2022.829349
9511, 0.000000, 157.500000, 2022.829349
9512, 0.000000, 160.000000, 2012.412683
9513, 15.682742, 159.229556, 2022.829349
9514, 165.000000, 0.000000, 2022.829349
9515, 161.829571, 32.189903, 2022.829349
9516, 162.500000, 0.000000, 2022.829349
9517, 165.000000, 0.000000, 2012.412683
9518, 159.377608, 31.702177, 2022.829349
9519, 161.829571, 32.189903, 2012.412683
9520, 164.205480, 16.172828, 2022.829349
9521, 152.440123, 63.142766, 2022.829349
9522, 150.130424, 62.186058, 2022.829349
9523, 152.440123, 63.142766, 2012.412683
9524, 157.895155, 47.896972, 2022.829349
9525, 137.192486, 91.669088, 2022.829349
9526, 135.113812, 90.280163, 2022.829349
9527, 137.192486, 91.669088, 2012.412683
9528, 145.517009, 77.780462, 2022.829349
9529, 116.672619, 116.672619, 2022.829349
9530, 114.904852, 114.904852, 2022.829349
9531, 116.672619, 116.672619, 2012.412683
9532, 127.546725, 104.674892, 2022.829349
9533, 91.669088, 137.192486, 2022.829349
9534, 90.280163, 135.113812, 2022.829349
9535, 91.669088, 137.192486, 2012.412683
9536, 104.674892, 127.546725, 2022.829349
9537, 63.142766, 152.440123, 2022.829349
9538, 62.186058, 150.130424, 2022.829349
9539, 63.142766, 152.440123, 2012.412683
9540, 77.780462, 145.517009, 2022.829349
9541, 32.189903, 161.829571, 2022.829349
9542, 31.702177, 159.377608, 2022.829349
9543, 32.189903, 161.829571, 2012.412683
9544, 47.896972, 157.895155, 2022.829349
9545, 0.000000, 165.000000, 2022.829349
9546, 0.000000, 162.500000, 2022.829349
9547, 0.000000, 165.000000, 2012.412683
9548, 16.172828, 164.205480, 2022.829349
9549, 170.000000, 0.000000, 2022.829349
9550, 166.733498, 33.165355, 2022.829349
9551, 167.500000, 0.000000, 2022.829349
9552, 170.000000, 0.000000, 2012.412683
9553, 164.281534, 32.677629, 2022.829349
9554, 166.733498, 33.165355, 2012.412683
9555, 169.181404, 16.662914, 2022.829349
9556, 157.059521, 65.056184, 2022.829349
9557, 154.749822, 64.099475, 2022.829349
9558, 157.059521, 65.056184, 2012.412683
9559, 162.679857, 49.348395, 2022.829349
9560, 141.349834, 94.446940, 2022.829349
9561, 139.271160, 93.058014, 2022.829349
9562, 141.349834, 94.446940, 2012.412683
9563, 149.926615, 80.137445, 2022.829349
9564, 120.208153, 120.208153, 2022.829349
9565, 118.440386, 118.440386, 2022.829349
9566, 120.208153, 120.208153, 2012.412683
9567, 131.411777, 107.846858, 2022.829349
9568, 94.446940, 141.349834, 2022.829349
9569, 93.058014, 139.271160, 2022.829349
9570, 94.446940, 141.349834, 2012.412683
9571, 107.846858, 131.411777, 2022.829349
9572, 65.056184, 157.059521, 2022.829349
9573, 64.099475, 154.749822, 2022.829349
9574, 65.056184, 157.059521, 2012.412683
9575, 80.137445, 149.926615, 2022.829349
9576, 33.165355, 166.733498, 2022.829349
9577, 32.677629, 164.281534, 2022.829349
9578, 33.165355, 166.733498, 2012.412683
9579, 49.348395, 162.679857, 2022.829349
9580, 0.000000, 170.000000, 2022.829349
9581, 0.000000, 167.500000, 2022.829349
9582, 0.000000, 170.000000, 2012.412683
9583, 16.662914, 169.181404, 2022.829349
9584, 150.000000, 0.000000, 2043.662683
9585, 155.000000, 0.000000, 2043.662683
9586, 147.117792, 29.263548, 2043.662683
9587, 152.021718, 30.239000, 2043.662683
9588, 150.000000, 0.000000, 2033.246016
9589, 152.500000, 0.000000, 2043.662683
9590, 155.000000, 0.000000, 2033.246016
9591, 147.117792, 29.263548, 2033.246016
9592, 149.569755, 29.751274, 2043.662683
9593, 152.021718, 30.239000, 2033.246016
9594, 149.277709, 14.702571, 2043.662683
9595, 154.253633, 15.192657, 2043.662683
9596, 138.581930, 57.402515, 2043.662683
9597, 143.201328, 59.315932, 2043.662683
9598, 138.581930, 57.402515, 2033.246016
9599, 140.891629, 58.359223, 2043.662683
9600, 143.201328, 59.315932, 2033.246016
9601, 143.541050, 43.542702, 2043.662683
9602, 148.325752, 44.994125, 2043.662683
9603, 124.720442, 83.335535, 2043.662683
9604, 128.877790, 86.113386, 2043.662683
9605, 124.720442, 83.335535, 2033.246016
9606, 126.799116, 84.724461, 2043.662683
9607, 128.877790, 86.113386, 2033.246016
9608, 132.288190, 70.709511, 2043.662683
9609, 136.697796, 73.066494, 2043.662683
9610, 106.066017, 106.066017, 2043.662683
9611, 109.601551, 109.601551, 2043.662683
9612, 106.066017, 106.066017, 2033.246016
9613, 107.833784, 107.833784, 2043.662683
9614, 109.601551, 109.601551, 2033.246016
9615, 115.951568, 95.158993, 2043.662683
9616, 119.816620, 98.330959, 2043.662683
9617, 83.335535, 124.720442, 2043.662683
9618, 86.113386, 128.877790, 2043.662683
9619, 83.335535, 124.720442, 2033.246016
9620, 84.724461, 126.799116, 2043.662683
9621, 86.113386, 128.877790, 2033.246016
9622, 95.158993, 115.951568, 2043.662683
9623, 98.330959, 119.816620, 2043.662683
9624, 57.402515, 138.581930, 2043.662683
9625, 59.315932, 143.201328, 2043.662683
9626, 57.402515, 138.581930, 2033.246016
9627, 58.359223, 140.891629, 2043.662683
9628, 59.315932, 143.201328, 2033.246016
9629, 70.709511, 132.288190, 2043.662683
9630, 73.066494, 136.697796, 2043.662683
9631, 29.263548, 147.117792, 2043.662683
9632, 30.239000, 152.021718, 2043.662683
9633, 29.263548, 147.117792, 2033.246016
9634, 29.751274, 149.569755, 2043.662683
9635, 30.239000, 152.021718, 2033.246016
9636, 43.542702, 143.541050, 2043.662683
9637, 44.994125, 148.325752, 2043.662683
9638, 0.000000, 150.000000, 2043.662683
9639, 0.000000, 155.000000, 2043.662683
9640, 0.000000, 150.000000, 2033.246016
9641, 0.000000, 152.500000, 2043.662683
9642, 0.000000, 155.000000, 2033.246016
9643, 14.702571, 149.277709, 2043.662683
9644, 15.192657, 154.253633, 2043.662683
9645, 160.000000, 0.000000, 2043.662683
9646, 156.925645, 31.214452, 2043.662683
9647, 157.500000, 0.000000, 2043.662683
9648, 160.000000, 0.000000, 2033.246016
9649, 154.473682, 30.726726, 2043.662683
9650, 156.925645, 31.214452, 2033.246016
9651, 159.229556, 15.682742, 2043.662683
9652, 147.820725, 61.229349, 2043.662683
9653, 145.511026, 60.272641, 2043.662683
9654, 147.820725, 61.229349, 2033.246016
9655, 153.110454, 46.445548, 2043.662683
9656, 133.035138, 88.891237, 2043.662683
9657, 130.956464, 87.502312, 2043.662683
9658, 133.035138, 88.891237, 2033.246016
9659, 141.107402, 75.423478, 2043.662683
9660, 113.137085, 113.137085, 2043.662683
9661, 111.369318, 111.369318, 2043.662683
9662, 113.137085, 113.137085, 2033.246016
9663, 123.681673, 101.502925, 2043.662683
9664, 88.891237, 133.035138, 2043.662683
9665, 87.502312, 130.956464, 2043.662683
9666, 88.891237, 133.035138, 2033.246016
9667, 101.502925, 123.681673, 2043.662683
9668, 61.229349, 147.820725, 2043.662683
9669, 60.272641, 145.511026, 2043.662683
9670, 61.229349, 147.820725, 2033.246016
9671, 75.423478, 141.107402, 2043.662683
9672, 31.214452, 156.925645, 2043.662683
9673, 30.726726, 154.473682, 2043.662683
9674, 31.214452, 156.925645, 2033.246016
9675, 46.445548, 153.110454, 2043.662683
9676, 0.000000, 160.000000, 2043.662683
9677, 0.000000, 157.500000, 2043.662683
9678, 0.000000, 160.000000, 2033.246016
9679, 15.682742, 159.229556, 2043.662683
9680, 165.000000, 0.000000, 2043.662683
9681, 161.829571, 32.189903, 2043.662683
9682, 162.500000, 0.000000, 2043.662683
9683, 165.000000, 0.000000, 2033.246016
9684, 159.377608, 31.702177, 2043.662683
9685, 161.829571, 32.189903, 2033.246016
9686, 164.205480, 16.172828, 2043.662683
9687, 152.440123, 63.142766, 2043.662683
9688, 150.130424, 62.186058, 2043.662683
9689, 152.440123, 63.142766, 2033.246016
9690, 157.895155, 47.896972, 2043.662683
9691, 137.192486, 91.669088, 2043.662683
9692, 135.113812, 90.280163, 2043.662683
9693, 137.192486, 91.669088, 2033.246016
9694, 145.517009, 77.780462, 2043.662683
9695, 116.672619, 116.672619, 2043.662683
9696, 114.904852, 114.904852, 2043.662683
9697, 116.672619, 116.672619, 2033.246016
9698, 127.546725, 104.674892, 2043.662683
9699, 91.669088, 137.192486, 2043.662683
9700, 90.280163, 135.113812, 2043.662683
9701, 91.669088, 137.192486, 2033.246016
9702, 104.674892, 127.546725, 2043.662683
9703, 63.142766, 152.440123, 2043.662683
9704, 62.186058, 150.130424, 2043.662683
9705, 63.142766, 152.440123, 2033.246016
9706, 77.780462, 145.517009, 2043.662683
9707, 32.189903, 161.829571, 2043.662683
9708, 31.702177, 159.377608, 2043.662683
9709, 32.189903, 161.829571, 2033.246016
9710, 47.896972, 157.895155, 2043.662683
9711, 0.000000, 165.000000, 2043.662683
9712, 0.000000, 162.500000, 2043.662683
9713, 0.000000, 165.000000, 2033.246016
9714, 16.172828, 164.205480, 2043.662683
9715, 170.000000, 0.000000, 2043.662683
9716, 166.733498, 33.165355, 2043.662683
9717, 167.500000, 0.000000, 2043.662683
9718, 170.000000, 0.000000, 2033.246016
9719, 164.281534, 32.677629, 2043.662683
9720, 166.733498, 33.165355, 2033.246016
9721, 169.181404, 16.662914, 2043.662683
9722, 157.059521, 65.056184, 2043.662683
9723, 154.749822, 64.099475, 2043.662683
9724, 157.059521, 65.056184, 2033.246016
9725, 162.679857, 49.348395, 2043.662683
9726, 141.349834, 94.446940, 2043.662683
9727, 139.271160, 93.058014, 2043.662683
9728, 141.349834, 94.446940, 2033.246016
9729, 149.926615, 80.137445, 2043.662683
9730, 120.208153, 120.208153, 2043.662683
9731, 118.440386, 118.440386, 2043.662683
9732, 120.208153, 120.208153, 2033.246016
9733, 131.411777, 107.846858, 2043.662683
9734, 94.446940, 141.349834, 2043.662683
9735, 93.058014, 139.271160, 2043.662683
9736, 94.446940, 141.349834, 2033.246016
9737, 107.846858, 131.411777, 2043.662683
9738, 65.056184, 157.059521, 2043.662683
9739, 64.099475, 154.749822, 2043.662683
9740, 65.056184, 157.059521, 2033.246016
9741, 80.137445, 149.926615, 2043.662683
9742, 33.165355, 166.733498, 2043.662683
9743, 32.677629, 164.281534, 2043.662683
9744, 33.165355, 166.733498, 2033.246016
9745, 49.348395, 162.679857, 2043.662683
9746, 0.000000, 170.000000, 2043.662683
9747, 0.000000, 167.500000, 2043.662683
9748, 0.000000, 170.000000, 2033.246016
9749, 16.662914, 169.181404, 2043.662683
9750, 150.000000, 0.000000, 2064.496016
9751, 155.000000, 0.000000, 2064.496016
9752, 147.117792, 29.263548, 2064.496016
9753, 152.021718, 30.239000, 2064.496016
9754, 150.000000, 0.000000, 2054.079349
9755, 152.500000, 0.000000, 2064.496016
9756, 155.000000, 0.000000, 2054.079349
9757, 147.117792, 29.263548, 2054.079349
9758, 149.569755, 29.751274, 2064.496016
9759, 152.021718, 30.239000, 2054.079349
9760, 149.277709, 14.702571, 2064.496016
9761, 154.253633, 15.192657, 2064.496016
9762, 138.581930, 57.402515, 2064.496016
9763, 143.201328, 59.315932, 2064.496016
9764, 138.581930, 57.402515, 2054.079349
9765, 140.891629, 58.359223, 2064.496016
9766, 143.201328, 59.315932, 2054.079349
9767, 143.541050, 43.542702, 2064.496016
9768, 148.325752, 44.994125, 2064.496016
9769, 124.720442, 83.335535, 2064.496016
9770, 128.877790, 86.113386, 2064.496016
9771, 124.720442, 83.335535, 2054.079349
9772, 126.799116, 84.724461, 2064.496016
9773, 128.877790, 86.113386, 2054.079349
9774, 132.288190, 70.709511, 2064.496016
9775, 136.697796, 73.066494, 2064.496016
9776, 106.066017, 106.066017, 2064.496016
9777, 109.601551, 109.601551, 2064.496016
9778, 106.066017, 106.066017, 2054.079349
9779, 107.833784, 107.833784, 2064.496016
9780, 109.601551, 109.601551, 2054.079349
9781, 115.951568, 95.158993, 2064.496016
9782, 119.816620, 98.330959, 2064.496016
9783, 83.335535, 124.720442, 2064.496016
9784, 86.113386, 128.877790, 2064.496016
9785, 83.335535, 124.720442, 2054.079349
9786, 84.724461, 126.799116, 2064.496016
9787, 86.113386, 128.877790, 2054.079349
9788, 95.158993, 115.951568, 2064.496016
9789, 98.330959, 119.816620, 2064.496016
9790, 57.402515, 138.581930, 2064.496016
9791, 59.315932, 143.201328, 2064.496016
9792, 57.402515, 138.581930, 2054.079349
9793, 58.359223, 140.891629, 2064.496016
9794, 59.315932, 143.201328, 2054.079349
9795, 70.709511, 132.288190, 2064.496016
9796, 73.066494, 136.697796, 2064.496016
9797, 29.263548, 147.117792, 2064.496016
9798, 30.239000, 152.021718, 2064.496016
9799, 29.263548, 147.117792, 2054.079349
9800, 29.751274, 149.569755, 2064.496016
9801, 30.239000, 152.021718, 2054.079349
9802, 43.542702, 143.541050, 2064.496016
9803, 44.994125, 148.325752, 2064.496016
9804, 0.000000, 150.000000, 2064.496016
9805, 0.000000, 155.000000, 2064.496016
9806, 0.000000, 150.000000, 2054.079349
9807, 0.000000, 152.500000, 2064.496016
9808, 0.000000, 155.000000, 2054.079349
9809, 14.702571, 149.277709, 2064.496016
9810, 15.192657, 154.253633, 2064.496016
9811, 160.000000, 0.000000, 2064.496016
9812, 156.925645, 31.214452, 2064.496016
9813, 157.500000, 0.000000, 2064.496016
9814, 160.000000, 0.000000, 2054.079349
9815, 154.473682, 30.726726, 2064.496016
9816, 156.925645, 31.214452, 2054.079349
9817, 159.229556, 15.682742, 2064.496016
9818, 147.820725, 61.229349, 2064.496016
9819, 145.511026, 60.272641, 2064.496016
9820, 147.820725, 61.229349, 2054.079349
9821, 153.110454, 46.445548, 2064.496016
9822, 133.035138, 88.891237, 2064.496016
9823, 130.956464, 87.502312, 2064.496016
9824, 133.035138, 88.891237, 2054.079349
9825, 141.107402, 75.423478, 2064.496016
9826, 113.137085, 113.137085, 2064.496016
9827, 111.369318, 111.369318, 2064.496016
9828, 113.137085, 113.137085, 2054.079349
9829, 123.681673, 101.502925, 2064.496016
9830, 88.891237, 133.035138, 2064.496016
9831, 87.502312, 130.956464, 2064.496016
9832, 88.891237, 133.035138, 2054.079349
9833, 101.502925, 123.681673, 2064.496016
9834, 61.229349, 147.820725, 2064.496016
9835, 60.272641, 145.511026, 2064.496016
9836, 61.229349, 147.820725, 2054.079349
9837, 75.423478, 141.107402, 2064.496016
9838, 31.214452, 156.925645, 2064.496016
9839, 30.726726, 154.473682, 2064.496016
9840, 31.214452, 156.925645, 2054.079349
9841, 46.445548, 153.110454, 2064.496016
9842, 0.000000, 160.000000, 2064.496016
9843, 0.000000, 157.500000, 2064.496016
9844, 0.000000, 160.000000, 2054.079349
9845, 15.682742, 159.229556, 2064.496016
9846, 165.000000, 0.000000, 2064.496016
9847, 161.829571, 32.189903, 2064.496016
9848, 162.500000, 0.000000, 2064.496016
9849, 165.000000, 0.000000, 2054.079349
9850, 159.377608, 31.702177, 2064.496016
9851, 161.829571, 32.189903, 2054.079349
9852, 164.205480, 16.172828, 2064.496016
9853, 152.440123, 63.142766, 2064.496016
9854, 150.130424, 62.186058, 2064.496016
9855, 152.440123, 63.142766, 2054.079349
9856, 157.895155, 47.896972, 2064.496016
9857, 137.192486, 91.669088, 2064.496016
9858, 135.113812, 90.280163, 2064.496016
9859, 137.192486, 91.669088, 2054.079349
9860, 145.517009, 77.780462, 2064.496016
9861, 116.672619, 116.672619, 2064.496016
9862, 114.904852, 114.904852, 2064.496016
9863, 116.672619, 116.672619, 2054.079349
9864, 127.546725, 104.674892, 2064.496016
9865, 91.669088, 137.192486, 2064.496016
9866, 90.280163, 135.113812, 2064.496016
9867, 91.669088, 137.192486, 2054.079349
9868, 104.674892, 127.546725, 2064.496016
9869, 63.142766, 152.440123, 2064.496016
9870, 62.186058, 150.130424, 2064.496016
9871, 63.142766, 152.440123, 2054.079349
9872, 77.780462, 145.517009, 2064.496016
9873, 32.189903, 161.829571, 2064.496016
9874, 31.702177, 159.377608, 2064.496016
9875, 32.189903, 161.829571, 2054.079349
9876, 47.896972, 157.895155, 2064.496016
9877, 0.000000, 165.000000, 2064.496016
9878, 0.000000, 162.500000, 2064.496016
9879, 0.000000, 165.000000, 2054.079349
9880, 16.172828, 164.205480, 2064.496016
9881, 170.000000, 0.000000, 2064.496016
9882, 166.733498, 33.165355, 2064.496016
9883, 167.500000, 0.000000, 2064.496016
9884, 170.000000, 0.000000, 2054.079349
9885, 164.281534, 32.677629, 2064.496016
9886, 166.733498, 33.165355, 2054.079349
9887, 169.181404, 16.662914, 2064.496016
9888, 157.059521, 65.056184, 2064.496016
9889, 154.749822, 64.099475, 2064.496016
9890, 157.059521, 65.056184, 2054.079349
9891, 162.679857, 49.348395, 2064.496016
9892, 141.349834, 94.446940, 2064.496016
9893, 139.271160, 93.058014, 2064.496016
9894, 141.349834, 94.446940, 2054.079349
9895, 149.926615, 80.137445, 2064.496016
9896, 120.208153, 120.208153, 2064.496016
9897, 118.440386, 118.440386, 2064.496016
9898, 120.208153, 120.208153, 2054.079349
9899, 131.411777, 107.846858, 2064.496016
9900, 94.446940, 141.349834, 2064.496016
9901, 93.058014, 139.271160, 2064.496016
9902, 94.446940, 141.349834, 2054.079349
9903, 107.846858, 131.411777, 2064.496016
9904, 65.056184, 157.059521, 2064.496016
9905, 64.099475, 154.749822, 2064.496016
9906, 65.056184, 157.059521, 2054.079349
9907, 80.137445, 149.926615, 2064.496016
9908, 33.165355, 166.733498, 2064.496016
9909, 32.677629, 164.281534, 2064.496016
9910, 33.165355, 166.733498, 2054.079349
9911, 49.348395, 162.679857, 2064.496016
9912, 0.000000, 170.000000, 2064.496016
9913, 0.000000, 167.500000, 2064.496016
9914, 0.000000, 170.000000, 2054.079349
9915, 16.662914, 169.181404, 2064.496016
9916, 150.000000, 0.000000, 2085.329349
9917, 155.000000, 0.000000, 2085.329349
9918, 147.117792, 29.263548, 2085.329349
9919, 152.021718, 30.239000, 2085.329349
9920, 150.000000, 0.000000, 2074.912683
9921, 152.500000, 0.000000, 2085.329349
9922, 155.000000, 0.000000, 2074.912683
9923, 147.117792, 29.263548, 2074.912683
9924, 149.569755, 29.751274, 2085.329349
9925, 152.021718, 30.239000, 2074.912683
9926, 149.277709, 14.702571, 2085.329349
9927, 154.253633, 15.192657, 2085.329349
9928, 138.581930, 57.402515, 2085.329349
9929, 143.201328, 59.315932, 2085.329349
9930, 138.581930, 57.402515, 2074.912683
9931, 140.891629, 58.359223, 2085.329349
9932, 143.201328, 59.315932, 2074.912683
9933, 143.541050, 43.542702, 2085.329349
9934, 148.325752, 44.994125, 2085.329349
9935, 124.720442, 83.335535, 2085.329349
9936, 128.877790, 86.113386, 2085.329349
9937, 124.720442, 83.335535, 2074.912683
9938, 126.799116, 84.724461, 2085.329349
9939, 128.877790, 86.113386, 2074.912683
9940, 132.288190, 70.709511, 2085.329349
9941, 136.697796, 73.066494, 2085.329349
9942, 106.066017, 106.066017, 2085.329349
9943, 109.601551, 109.601551, 2085.329349
9944, 106.066017, 106.066017, 2074.912683
9945, 107.833784, 107.833784, 2085.329349
9946, 109.601551, 109.601551, 2074.912683
9947, 115.951568, 95.158993, 2085.329349
9948, 119.816620, 98.330959, 2085.329349
9949, 83.335535, 124.720442, 2085.329349
9950, 86.113386, 128.877790, 2085.329349
9951, 83.335535, 124.720442, 2074.912683
9952, 84.724461, 126.799116, 2085.329349
9953, 86.113386, 128.877790, 2074.912683
9954, 95.158993, 115.951568, 2085.329349
9955, 98.330959, 119.816620, 2085.329349
9956, 57.402515, 138.581930, 2085.329349
9957, 59.315932, 143.201328, 2085.329349
9958, 57.402515, 138.581930, 2074.912683
9959, 58.359223, 140.891629, 2085.329349
9960, 59.315932, 143.201328, 2074.912683
9961, 70.709511, 132.288190, 2085.329349
9962, 73.066494, 136.697796, 2085.329349
9963, 29.263548, 147.117792, 2085.329349
9964, 30.239000, 152.021718, 2085.329349
9965, 29.263548, 147.117792, 2074.912683
9966, 29.751274, 149.569755, 2085.329349
9967, 30.239000, 152.021718, 2074.912683
9968, 43.542702, 143.541050, 2085.329349
9969, 44.994125, 148.325752, 2085.329349
9970, 0.000000, 150.000000, 2085.329349
9971, 0.000000, 155.000000, 2085.329349
9972, 0.000000, 150.000000, 2074.912683
9973, 0.000000, 152.500000, 2085.329349
9974, 0.000000, 155.000000, 2074.912683
9975, 14.702571, 149.277709, 2085.329349
9976, 15.192657, 154.253633, 2085.329349
9977, 160.000000, 0.000000, 2085.329349
9978, 156.925645, 31.214452, 2085.329349
9979, 157.500000, 0.000000, 2085.329349
9980, 160.000000, 0.000000, 2074.912683
9981, 154.473682, 30.726726, 2085.329349
9982, 156.925645, 31.214452, 2074.912683
9983, 159.229556, 15.682742, 2085.329349
9984, 147.820725, 61.229349, 2085.329349
9985, 145.511026, 60.272641, 2085.329349
9986, 147.820725, 61.229349, 2074.912683
9987, 153.110454, 46.445548, 2085.329349
9988, 133.035138, 88.891237, 2085.329349
9989, 130.956464, 87.502312, 2085.329349
9990, 133.035138, 88.891237, 2074.912683
9991, 141.107402, 75.423478, 2085.329349
9992, 113.137085, 113.137085, 2085.329349
9993, 111.369318, 111.369318, 2085.329349
9994, 113.137085, 113.137085, 2074.912683
9995, 123.681673, 101.502925, 2085.329349
9996, 88.891237, 133.035138, 2085.329349
9997, 87.502312, 130.956464, 2085.329349
9998, 88.891237, 133.035138, 2074.912683
9999, 101.502925, 123.681673, 2085.329349
10000, 61.229349, 147.820725, 2085.329349
10001, 60.272641, 145.511026, 2085.329349
10002, 61.229349, 147.820725, 2074.912683
10003, 75.423478, 141.107402, 2085.329349
10004, 31.214452, 156.925645, 2085.329349
10005, 30.726726, 154.473682, 2085.329349
10006, 31.214452, 156.925645, 2074.912683
10007, 46.445548, 153.110454, 2085.329349
10008, 0.000000, 160.000000, 2085.329349
10009, 0.000000, 157.500000, 2085.329349
10010, 0.000000, 160.000000, 2074.912683
10011, 15.682742, 159.229556, 2085.329349
10012, 165.000000, 0.000000, 2085.329349
10013, 161.829571, 32.189903, 2085.329349
10014, 162.500000, 0.000000, 2085.329349
10015, 165.000000, 0.000000, 2074.912683
10016, 159.377608, 31.702177, 2085.329349
10017, 161.829571, 32.189903, 2074.912683
10018, 164.205480, 16.172828, 2085.329349
10019, 152.440123, 63.142766, 2085.329349
10020, 150.130424, 62.186058, 2085.329349
10021, 152.440123, 63.142766, 2074.912683
10022, 157.895155, 47.896972, 2085.329349
10023, 137.192486, 91.669088, 2085.329349
10024, 135.113812, 90.280163, 2085.329349
10025, 137.192486, 91.669088, 2074.912683
10026, 145.517009, 77.780462, 2085.329349
10027, 116.672619, 116.672619, 2085.329349
10028, 114.904852, 114.904852, 2085.329349
10029, 116.672619, 116.672619, 2074.912683
10030, 127.546725, 104.674892, 2085.329349
10031, 91.669088, 137.192486, 2085.329349
10032, 90.280163, 135.113812, 2085.329349
10033, 91.669088, 137.192486, 2074.912683
10034, 104.674892, 127.546725, 2085.329349
10035, 63.142766, 152.440123, 2085.329349
10036, 62.186058, 150.130424, 2085.329349
10037, 63.142766, 152.440123, 2074.912683
10038, 77.780462, 145.517009, 2085.329349
10039, 32.189903, 161.829571, 2085.329349
10040, 31.702177, 159.377608, 2085.329349
10041, 32.189903, 161.829571, 2074.912683
10042, 47.896972, 157.895155, 2085.329349
10043, 0.000000, 165.000000, 2085.329349
10044, 0.000000, 162.500000, 2085.329349
10045, 0.000000, 165.000000, 2074.912683
10046, 16.172828, 164.205480, 2085.329349
10047, 170.000000, 0.000000, 2085.329349
10048, 166.733498, 33.165355, 2085.329349
10049, 167.500000, 0.000000, 2085.329349
10050, 170.000000, 0.000000, 2074.912683
10051, 164.281534, 32.677629, 2085.329349
10052, 166.733498, 33.165355, 2074.912683
10053, 169.181404, 16.662914, 2085.329349
10054, 157.059521, 65.056184, 2085.329349
10055, 154.749822, 64.099475, 2085.329349
10056, 157.059521, 65.056184, 2074.912683
10057, 162.679857, 49.348395, 2085.329349
10058, 141.349834, 94.446940, 2085.329349
10059, 139.271160, 93.058014, 2085.329349
10060, 141.349834, 94.446940, 2074.912683
10061, 149.926615, 80.137445, 2085.329349
10062, 120.208153, 120.208153, 2085.329349
10063, 118.440386, 118.440386, 2085.329349
10064, 120.208153, 120.208153, 2074.912683
10065, 131.411777, 107.846858, 2085.329349
10066, 94.446940, 141.349834, 2085.329349
10067, 93.058014, 139.271160, 2085.329349
10068, 94.446940, 141.349834, 2074.912683
10069, 107.846858, 131.411777, 2085.329349
10070, 65.056184, 157.059521, 2085.329349
10071, 64.099475, 154.749822, 2085.329349
10072, 65.056184, 157.059521, 2074.912683
10073, 80.137445, 149.926615, 2085.329349
10074, 33.165355, 166.733498, 2085.329349
10075, 32.677629, 164.281534, 2085.329349
10076, 33.165355, 166.733498, 2074.912683
10077, 49.348395, 162.679857, 2085.329349
10078, 0.000000, 170.000000, 2085.329349
10079, 0.000000, 167.500000, 2085.329349
10080, 0.000000, 170.000000, 2074.912683
10081, 16.662914, 169.181404, 2085.329349
10082, 150.000000, 0.000000, 2106.162683
10083, 155.000000, 0.000000, 2106.162683
10084, 147.117792, 29.263548, 2106.162683
10085, 152.021718, 30.239000, 2106.162683
10086, 150.000000, 0.000000, 2095.746016
10087, 152.500000, 0.000000, 2106.162683
10088, 155.000000, 0.000000, 2095.746016
10089, 147.117792, 29.263548, 2095.746016
10090, 149.569755, 29.751274, 2106.162683
10091, 152.021718, 30.239000, 2095.746016
10092, 149.277709, 14.702571, 2106.162683
10093, 154.253633, 15.192657, 2106.162683
10094, 138.581930, 57.402515, 2106.162683
10095, 143.201328, 59.315932, 2106.162683
10096, 138.581930, 57.402515, 2095.746016
10097, 140.891629, 58.359223, 2106.162683
10098, 143.201328, 59.315932, 2095.746016
10099, 143.541050, 43.542702, 2106.162683
10100, 148.325752, 44.994125, 2106.162683
10101, 124.720442, 83.335535, 2106.162683
10102, 128.877790, 86.113386, 2106.162683
10103, 124.720442, 83.335535, 2095.746016
10104, 126.799116, 84.724461, 2106.162683
10105, 128.877790, 86.113386, 2095.746016
10106, 132.288190, 70.709511, 2106.162683
10107, 136.697796, 73.066494, 2106.162683
10108, 106.066017, 106.066017, 2106.162683
10109, 109.601551, 109.601551, 2106.162683
10110, 106.066017, 106.066017, 2095.746016
10111, 107.833784, 107.833784, 2106.162683
10112, 109.601551, 109.601551, 2095.746016
10113, 115.951568, 95.158993, 2106.162683
10114, 119.816620, 98.330959, 2106.162683
10115, 83.335535, 124.720442, 2106.162683
10116, 86.113386, 128.877790, 2106.162683
10117, 83.335535, 124.720442, 2095.746016
10118, 84.724461, 126.799116, 2106.162683
10119, 86.113386, 128.877790, 2095.746016
10120, 95.158993, 115.951568, 2106.162683
10121, 98.330959, 119.816620, 2106.162683
10122, 57.402515, 138.581930, 2106.162683
10123, 59.315932, 143.201328, 2106.162683
10124, 57.402515, 138.581930, 2095.746016
10125, 58.359223, 140.891629, 2106.162683
10126, 59.315932, 143.201328, 2095.746016
10127, 70.709511, 132.288190, 2106.162683
10128, 73.066494, 136.697796, 2106.162683
10129, 29.263548, 147.117792, 2106.162683
10130, 30.239000, 152.021718, 2106.162683
10131, 29.263548, 147.117792, 2095.746016
10132, 29.751274, 149.569755, 2106.162683
10133, 30.239000, 152.021718, 2095.746016
10134, 43.542702, 143.541050, 2106.162683
10135, 44.994125, 148.325752, 2106.162683
10136, 0.000000, 150.000000, 2106.162683
10137, 0.000000, 155.000000, 2106.162683
10138, 0.000000, 150.000000, 2095.746016
10139, 0.000000, 152.500000, 2106.162683
10140, 0.000000, 155.000000, 2095.746016
10141, 14.702571, 149.277709, 2106.162683
10142, 15.192657, 154.253633, 2106.162683
10143, 160.000000, 0.000000, 2106.162683
10144, 156.925645, 31.214452, 2106.162683
10145, 157.500000, 0.000000, 2106.162683
10146, 160.000000, 0.000000, 2095.746016
10147, 154.473682, 30.726726, 2106.162683
10148, 156.925645, 31.214452, 2095.746016
10149, 159.229556, 15.682742, 2106.162683
10150, 147.820725, 61.229349, 2106.162683
10151, 145.511026, 60.272641, 2106.162683
10152, 147.820725, 61.229349, 2095.746016
10153, 153.110454, 46.445548, 2106.162683
10154, 133.035138, 88.891237, 2106.162683
10155, 130.956464, 87.502312, 2106.162683
10156, 133.035138, 88.891237, 2095.746016
10157, 141.107402, 75.423478, 2106.162683
10158, 113.137085, 113.137085, 2106.162683
10159, 111.369318, 111.369318, 2106.162683
10160, 113.137085, 113.137085, 2095.746016
10161, 123.681673, 101.502925, 2106.162683
10162, 88.891237, 133.035138, 2106.162683
10163, 87.502312, 130.956464, 2106.162683
10164, 88.891237, 133.035138, 2095.746016
10165, 101.502925, 123.681673, 2106.162683
10166, 61.229349, 147.820725, 2106.162683
10167, 60.272641, 145.511026, 2106.162683
10168, 61.229349, 147.820725, 2095.746016
10169, 75.423478, 141.107402, 2106.162683
10170, 31.214452, 156.925645, 2106.162683
10171, 30.726726, 154.473682, 2106.162683
10172, 31.214452, 156.925645, 2095.746016
10173, 46.445548, 153.110454, 2106.162683
10174, 0.000000, 160.000000, 2106.162683
10175, 0.000000, 157.500000, 2106.162683
10176, 0.000000, 160.000000, 2095.746016
10177, 15.682742, 159.229556, 2106.162683
10178, 165.000000, 0.000000, 2106.162683
10179, 161.829571, 32.189903, 2106.162683
10180, 162.500000, 0.000000, 2106.162683
10181, 165.000000, 0.000000, 2095.746016
10182, 159.377608, 31.702177, 2106.162683
10183, 161.829571, 32.189903, 2095.746016
10184, 164.205480, 16.172828, 2106.162683
10185, 152.440123, 63.142766, 2106.162683
10186, 150.130424, 62.186058, 2106.162683
10187, 152.440123, 63.142766, 2095.746016
10188, 157.895155, 47.896972, 2106.162683
10189, 137.192486, 91.669088, 2106.162683
10190, 135.113812, 90.280163, 2106.162683
10191, 137.192486, 91.669088, 2095.746016
10192, 145.517009, 77.780462, 2106.162683
10193, 116.672619, 116.672619, 2106.162683
10194, 114.904852, 114.904852, 2106.162683
10195, 116.672619, 116.672619, 2095.746016
10196, 127.546725, 104.674892, 2106.162683
10197, 91.669088, 137.192486, 2106.162683
10198, 90.280163, 135.113812, 2106.162683
10199, 91.669088, 137.192486, 2095.746016
10200, 104.674892, 127.546725, 2106.162683
10201, 63.142766, 152.440123, 2106.162683
10202, 62.186058, 150.130424, 2106.162683
10203, 63.142766, 152.440123, 2095.746016
10204, 77.780462, 145.517009, 2106.162683
10205, 32.189903, 161.829571, 2106.162683
10206, 31.702177, 159.377608, 2106.162683
10207, 32.189903, 161.829571, 2095.746016
10208, 47.896972, 157.895155, 2106.162683
10209, 0.000000, 165.000000, 2106.162683
10210, 0.000000, 162.500000, 2106.162683
10211, 0.000000, 165.000000, 2095.746016
10212, 16.172828, 164.205480, 2106.162683
10213, 170.000000, 0.000000, 2106.162683
10214, 166.733498, 33.165355, 2106.162683
10215, 167.500000, 0.000000, 2106.162683
10216, 170.000000, 0.000000, 2095.746016
10217, 164.281534, 32.677629, 2106.162683
10218, 166.733498, 33.165355, 2095.746016
10219, 169.181404, 16.662914, 2106.162683
10220, 157.059521, 65.056184, 2106.162683
10221, 154.749822, 64.099475, 2106.162683
10222, 157.059521, 65.056184, 2095.746016
10223, 162.679857, 49.348395, 2106.162683
10224, 141.349834, 94.446940, 2106.162683
10225, 139.271160, 93.058014, 2106.162683
10226, 141.349834, 94.446940, 2095.746016
10227, 149.926615, 80.137445, 2106.162683
10228, 120.208153, 120.208153, 2106.162683
10229, 118.440386, 118.440386, 2106.162683
10230, 120.208153, 120.208153, 2095.746016
10231, 131.411777, 107.846858, 2106.162683
10232, 94.446940, 141.349834, 2106.162683
10233, 93.058014, 139.271160, 2106.162683
10234, 94.446940, 141.349834, 2095.746016
10235, 107.846858, 131.411777, 2106.162683
10236, 65.056184, 157.059521, 2106.162683
10237, 64.099475, 154.749822, 2106.162683
10238, 65.056184, 157.059521, 2095.746016
10239, 80.137445, 149.926615, 2106.162683
10240, 33.165355, 166.733498, 2106.162683
10241, 32.677629, 164.281534, 2106.162683
10242, 33.165355, 166.733498, 2095.746016
10243, 49.348395, 162.679857, 2106.162683
10244, 0.000000, 170.000000, 2106.162683
10245, 0.000000, 167.500000, 2106.162683
10246, 0.000000, 170.000000, 2095.746016
10247, 16.662914, 169.181404, 2106.162683
10248, 150.000000, 0.000000, 2126.996016
10249, 155.000000, 0.000000, 2126.996016
10250, 147.117792, 29.263548, 2126.996016
10251, 152.021718, 30.239000, 2126.996016
10252, 150.000000, 0.000000, 2116.579349
10253, 152.500000, 0.000000, 2126.996016
10254, 155.000000, 0.000000, 2116.579349
10255, 147.117792, 29.263548, 2116.579349
10256, 149.569755, 29.751274, 2126.996016
10257, 152.021718, 30.239000, 2116.579349
10258, 149.277709, 14.702571, 2126.996016
10259, 154.253633, 15.192657, 2126.996016
10260, 138.581930, 57.402515, 2126.996016
10261, 143.201328, 59.315932, 2126.996016
10262, 138.581930, 57.402515, 2116.579349
10263, 140.891629, 58.359223, 2126.996016
10264, 143.201328, 59.315932, 2116.579349
10265, 143.541050, 43.542702, 2126.996016
10266, 148.325752, 44.994125, 2126.996016
10267, 124.720442, 83.335535, 2126.996016
10268, 128.877790, 86.113386, 2126.996016
10269, 124.720442, 83.335535, 2116.579349
10270, 126.799116, 84.724461, 2126.996016
10271, 128.877790, 86.113386, 2116.579349
10272, 132.288190, 70.709511, 2126.996016
10273, 136.697796, 73.066494, 2126.996016
10274, 106.066017, 106.066017, 2126.996016
10275, 109.601551, 109.601551, 2126.996016
10276, 106.066017, 106.066017, 2116.579349
10277, 107.833784, 107.833784, 2126.996016
10278, 109.601551, 109.601551, 2116.579349
10279, 115.951568, 95.158993, 2126.996016
10280, 119.816620, 98.330959, 2126.996016
10281, 83.335535, 124.720442, 2126.996016
10282, 86.113386, 128.877790, 2126.996016
10283, 83.335535, 124.720442, 2116.579349
10284, 84.724461, 126.799116, 2126.996016
10285, 86.113386, 128.877790, 2116.579349
10286, 95.158993, 115.951568, 2126.996016
10287, 98.330959, 119.816620, 2126.996016
10288, 57.402515, 138.581930, 2126.996016
10289, 59.315932, 143.201328, 2126.996016
10290, 57.402515, 138.581930, 2116.579349
10291, 58.359223, 140.891629, 2126.996016
10292, 59.315932, 143.201328, 2116.579349
10293, 70.709511, 132.288190, 2126.996016
10294, 73.066494, 136.697796, 2126.996016
10295, 29.263548, 147.117792, 2126.996016
10296, 30.239000, 152.021718, 2126.996016
10297, 29.263548, 147.117792, 2116.579349
10298, 29.751274, 149.569755, 2126.996016
10299, 30.239000, 152.021718, 2116.579349
10300, 43.542702, 143.541050, 2126.996016
10301, 44.994125, 148.325752, 2126.996016
10302, 0.000000, 150.000000, 2126.996016
10303, 0.000000, 155.000000, 2126.996016
10304, 0.000000, 150.000000, 2116.579349
10305, 0.000000, 152.500000, 2126.996016
10306, 0.000000, 155.000000, 2116.579349
10307, 14.702571, 149.277709, 2126.996016
10308, 15.192657, 154.253633, 2126.996016
10309, 160.000000, 0.000000, 2126.996016
10310, 156.925645, 31.214452, 2126.996016
10311, 157.500000, 0.000000, 2126.996016
10312, 160.000000, 0.000000, 2116.579349
10313, 154.473682, 30.726726, 2126.996016
10314, 156.925645, 31.214452, 2116.579349
10315, 159.229556, 15.682742, 2126.996016
10316, 147.820725, 61.229349, 2126.996016
10317, 145.511026, 60.272641, 2126.996016
10318, 147.820725, 61.229349, 2116.579349
10319, 153.110454, 46.445548, 2126.996016
10320, 133.035138, 88.891237, 2126.996016
10321, 130.956464, 87.502312, 2126.996016
10322, 133.035138, 88.891237, 2116.579349
10323, 141.107402, 75.423478, 2126.996016
10324, 113.137085, 113.137085, 2126.996016
10325, 111.369318, 111.369318, 2126.996016
10326, 113.137085, 113.137085, 2116.579349
10327, 123.681673, 101.502925, 2126.996016
10328, 88.891237, 133.035138, 2126.996016
10329, 87.502312, 130.956464, 2126.996016
10330, 88.891237, 133.035138, 2116.579349
10331, 101.502925, 123.681673, 2126.996016
10332, 61.229349, 147.820725, 2126.996016
10333, 60.272641, 145.511026, 2126.996016
10334, 61.229349, 147.820725, 2116.579349
10335, 75.423478, 141.107402, 2126.996016
10336, 31.214452, 156.925645, 2126.996016
10337, 30.726726, 154.473682, 2126.996016
10338, 31.214452, 156.925645, 2116.579349
10339, 46.445548, 153.110454, 2126.996016
10340, 0.000000, 160.000000, 2126.996016
10341, 0.000000, 157.500000, 2126.996016
10342, 0.000000, 160.000000, 2116.579349
10343, 15.682742, 159.229556, 2126.996016
10344, 165.000000, 0.000000, 2126.996016
10345, 161.829571, 32.189903, 2126.996016
10346, 162.500000, 0.000000, 2126.996016
10347, 165.000000, 0.000000, 2116.579349
10348, 159.377608, 31.702177, 2126.996016
10349, 161.829571, 32.189903, 2116.579349
10350, 164.205480, 16.172828, 2126.996016
10351, 152.440123, 63.142766, 2126.996016
10352, 150.130424, 62.186058, 2126.996016
10353, 152.440123, 63.142766, 2116.579349
10354, 157.895155, 47.896972, 2126.996016
10355, 137.192486, 91.669088, 2126.996016
10356, 135.113812, 90.280163, 2126.996016
10357, 137.192486, 91.669088, 2116.579349
10358, 145.517009, 77.780462, 2126.996016
10359, 116.672619, 116.672619, 2126.996016
10360, 114.904852, 114.904852, 2126.996016
10361, 116.672619, 116.672619, 2116.579349
10362, 127.546725, 104.674892, 2126.996016
10363, 91.669088, 137.192486, 2126.996016
10364, 90.280163, 135.113812, 2126.996016
10365, 91.669088, 137.192486, 2116.579349
10366, 104.674892, 127.546725, 2126.996016
10367, 63.142766, 152.440123, 2126.996016
10368, 62.186058, 150.130424, 2126.996016
10369, 63.142766, 152.440123, 2116.579349
10370, 77.780462, 145.517009, 2126.996016
10371, 32.189903, 161.829571, 2126.996016
10372, 31.702177, 159.377608, 2126.996016
10373, 32.189903, 161.829571, 2116.579349
10374, 47.896972, 157.895155, 2126.996016
10375, 0.000000, 165.000000, 2126.996016
10376, 0.000000, 162.500000, 2126.996016
10377, 0.000000, 165.000000, 2116.579349
10378, 16.172828, 164.205480, 2126.996016
10379, 170.000000, 0.000000, 2126.996016
10380, 166.733498, 33.165355, 2126.996016
10381, 167.500000, 0.000000, 2126.996016
10382, 170.000000, 0.000000, 2116.579349
10383, 164.281534, 32.677629, 2126.996016
10384, 166.733498, 33.165355, 2116.579349
10385, 169.181404, 16.662914, 2126.996016
10386, 157.059521, 65.056184, 2126.996016
10387, 154.749822, 64.099475, 2126.996016
10388, 157.059521, 65.056184, 2116.579349
10389, 162.679857, 49.348395, 2126.996016
10390, 141.349834, 94.446940, 2126.996016
10391, 139.271160, 93.058014, 2126.996016
10392, 141.349834, 94.446940, 2116.579349
10393, 149.926615, 80.137445, 2126.996016
10394, 120.208153, 120.208153, 2126.996016
10395, 118.440386, 118.440386, 2126.996016
10396, 120.208153, 120.208153, 2116.579349
10397, 131.411777, 107.846858, 2126.996016
10398, 94.446940, 141.349834, 2126.996016
10399, 93.058014, 139.271160, 2126.996016
10400, 94.446940, 141.349834, 2116.579349
10401, 107.846858, 131.411777, 2126.996016
10402, 65.056184, 157.059521, 2126.996016
10403, 64.099475, 154.749822, 2126.996016
10404, 65.056184, 157.059521, 2116.579349
10405, 80.137445, 149.926615, 2126.996016
10406, 33.165355, 166.733498, 2126.996016
10407, 32.677629, 164.281534, 2126.996016
10408, 33.165355, 166.733498, 2116.579349
10409, 49.348395, 162.679857, 2126.996016
10410, 0.000000, 170.000000, 2126.996016
10411, 0.000000, 167.500000, 2126.996016
10412, 0.000000, 170.000000, 2116.579349
10413, 16.662914, 169.181404, 2126.996016
10414, 150.000000, 0.000000, 2147.829349
10415, 155.000000, 0.000000, 2147.829349
10416, 147.117792, 29.263548, 2147.829349
10417, 152.021718, 30.239000, 2147.829349
10418, 150.000000, 0.000000, 2137.412683
10419, 152.500000, 0.000000, 2147.829349
10420, 155.000000, 0.000000, 2137.412683
10421, 147.117792, 29.263548, 2137.412683
10422, 149.569755, 29.751274, 2147.829349
10423, 152.021718, 30.239000, 2137.412683
10424, 149.277709, 14.702571, 2147.829349
10425, 154.253633, 15.192657, 2147.829349
10426, 138.581930, 57.402515, 2147.829349
10427, 143.201328, 59.315932, 2147.829349
10428, 138.581930, 57.402515, 2137.412683
10429, 140.891629, 58.359223, 2147.829349
10430, 143.201328, 59.315932, 2137.412683
10431, 143.541050, 43.542702, 2147.829349
10432, 148.325752, 44.994125, 2147.829349
10433, 124.720442, 83.335535, 2147.829349
10434, 128.877790, 86.113386, 2147.829349
10435, 124.720442, 83.335535, 2137.412683
10436, 126.799116, 84.724461, 2147.829349
10437, 128.877790, 86.113386, 2137.412683
10438, 132.288190, 70.709511, 2147.829349
10439, 136.697796, 73.066494, 2147.829349
10440, 106.066017, 106.066017, 2147.829349
10441, 109.601551, 109.601551, 2147.829349
10442, 106.066017, 106.066017, 2137.412683
10443, 107.833784, 107.833784, 2147.829349
10444, 109.601551, 109.601551, 2137.412683
10445, 115.951568, 95.158993, 2147.829349
10446, 119.816620, 98.330959, 2147.829349
10447, 83.335535, 124.720442, 2147.829349
10448, 86.113386, 128.877790, 2147.829349
10449, 83.335535, 124.720442, 2137.412683
10450, 84.724461, 126.799116, 2147.829349
10451, 86.113386, 128.877790, 2137.412683
10452, 95.158993, 115.951568, 2147.829349
10453, 98.330959, 119.816620, 2147.829349
10454, 57.402515, 138.581930, 2147.829349
10455, 59.315932, 143.201328, 2147.829349
10456, 57.402515, 138.581930, 2137.412683
10457, 58.359223, 140.891629, 2147.829349
10458, 59.315932, 143.201328, 2137.412683
10459, 70.709511, 132.288190, 2147.829349
10460, 73.066494, 136.697796, 2147.829349
10461, 29.263548, 147.117792, 2147.829349
10462, 30.239000, 152.021718, 2147.829349
10463, 29.263548, 147.117792, 2137.412683
10464, 29.751274, 149.569755, 2147.829349
10465, 30.239000, 152.021718, 2137.412683
10466, 43.542702, 143.541050, 2147.829349
10467, 44.994125, 148.325752, 2147.829349
10468, 0.000000, 150.000000, 2147.829349
10469, 0.000000, 155.000000, 2147.829349
10470, 0.000000, 150.000000, 2137.412683
10471, 0.000000, 152.500000, 2147.829349
10472, 0.000000, 155.000000, 2137.412683
10473, 14.702571, 149.277709, 2147.829349
10474, 15.192657, 154.253633, 2147.829349
10475, 160.000000, 0.000000, 2147.829349
10476, 156.925645, 31.214452, 2147.829349
10477, 157.500000, 0.000000, 2147.829349
10478, 160.000000, 0.000000, 2137.412683
10479, 154.473682, 30.726726, 2147.829349
10480, 156.925645, 31.214452, 2137.412683
10481, 159.229556, 15.682742, 2147.829349
10482, 147.820725, 61.229349, 2147.829349
10483, 145.511026, 60.272641, 2147.829349
10484, 147.820725, 61.229349, 2137.412683
10485, 153.110454, 46.445548, 2147.829349
10486, 133.035138, 88.891237, 2147.829349
10487, 130.956464, 87.502312, 2147.829349
10488, 133.035138, 88.891237, 2137.412683
10489, 141.107402, 75.423478, 2147.829349
10490, 113.137085, 113.137085, 2147.829349
10491, 111.369318, 111.369318, 2147.829349
10492, 113.137085, 113.137085, 2137.412683
10493, 123.681673, 101.502925, 2147.829349
10494, 88.891237, 133.035138, 2147.829349
10495, 87.502312, 130.956464, 2147.829349
10496, 88.891237, 133.035138, 2137.412683
10497, 101.502925, 123.681673, 2147.829349
10498, 61.229349, 147.820725, 2147.829349
10499, 60.272641, 145.511026, 2147.829349
10500, 61.229349, 147.820725, 2137.412683
10501, 75.423478, 141.107402, 2147.829349
10502, 31.214452, 156.925645, 2147.829349
10503, 30.726726, 154.473682, 2147.829349
10504, 31.214452, 156.925645, 2137.412683
10505, 46.445548, 153.110454, 2147.829349
10506, 0.000000, 160.000000, 2147.829349
10507, 0.000000, 157.500000, 2147.829349
10508, 0.000000, 160.000000, 2137.412683
10509, 15.682742, 159.229556, 2147.829349
10510, 165.000000, 0.000000, 2147.829349
10511, 161.829571, 32.189903, 2147.829349
10512, 162.500000, 0.000000, 2147.829349
10513, 165.000000, 0.000000, 2137.412683
10514, 159.377608, 31.702177, 2147.829349
10515, 161.829571, 32.189903, 2137.412683
10516, 164.205480, 16.172828, 2147.829349
10517, 152.440123, 63.142766, 2147.829349
10518, 150.130424, 62.186058, 2147.829349
10519, 152.440123, 63.142766, 2137.412683
10520, 157.895155, 47.896972, 2147.829349
10521, 137.192486, 91.669088, 2147.829349
10522, 135.113812, 90.280163, 2147.829349
10523, 137.192486, 91.669088, 2137.412683
10524, 145.517009, 77.780462, 2147.829349
10525, 116.672619, 116.672619, 2147.829349
10526, 114.904852, 114.904852, 2147.829349
10527, 116.672619, 116.672619, 2137.412683
10528, 127.546725, 104.674892, 2147.829349
10529, 91.669088, 137.192486, 2147.829349
10530, 90.280163, 135.113812, 2147.829349
10531, 91.669088, 137.192486, 2137.412683
10532, 104.674892, 127.546725, 2147.829349
10533, 63.142766, 152.440123, 2147.829349
10534, 62.186058, 150.130424, 2147.829349
10535, 63.142766, 152.440123, 2137.412683
10536, 77.780462, 145.517009, 2147.829349
10537, 32.189903, 161.829571, 2147.829349
10538, 31.702177, 159.377608, 2147.829349
10539, 32.189903, 161.829571, 2137.412683
10540, 47.896972, 157.895155, 2147.829349
10541, 0.000000, 165.000000, 2147.829349
10542, 0.000000, 162.500000, 2147.829349
10543, 0.000000, 165.000000, 2137.412683
10544, 16.172828, 164.205480, 2147.829349
10545, 170.000000, 0.000000, 2147.829349
10546, 166.733498, 33.165355, 2147.829349
10547, 167.500000, 0.000000, 2147.829349
10548, 170.000000, 0.000000, 2137.412683
10549, 164.281534, 32.677629, 2147.829349
10550, 166.733498, 33.165355, 2137.412683
10551, 169.181404, 16.662914, 2147.829349
10552, 157.059521, 65.056184, 2147.829349
10553, 154.749822, 64.099475, 2147.829349
10554, 157.059521, 65.056184, 2137.412683
10555, 162.679857, 49.348395, 2147.829349
10556, 141.349834, 94.446940, 2147.829349
10557, 139.271160, 93.058014, 2147.829349
10558, 141.349834, 94.446940, 2137.412683
10559, 149.926615, 80.137445, 2147.829349
10560, 120.208153, 120.208153, 2147.829349
10561, 118.440386, 118.440386, 2147.829349
10562, 120.208153, 120.208153, 2137.412683
10563, 131.411777, 107.846858, 2147.829349
10564, 94.446940, 141.349834, 2147.829349
10565, 93.058014, 139.271160, 2147.829349
10566, 94.446940, 141.349834, 2137.412683
10567, 107.846858, 131.411777, 2147.829349
10568, 65.056184, 157.059521, 2147.829349
10569, 64.099475, 154.749822, 2147.829349
10570, 65.056184, 157.059521, 2137.412683
10571, 80.137445, 149.926615, 2147.829349
10572, 33.165355, 166.733498, 2147.829349
10573, 32.677629, 164.281534, 2147.829349
10574, 33.165355, 166.733498, 2137.412683
10575, 49.348395, 162.679857, 2147.829349
10576, 0.000000, 170.000000, 2147.829349
10577, 0.000000, 167.500000, 2147.829349
10578, 0.000000, 170.000000, 2137.412683
10579, 16.662914, 169.181404, 2147.829349
10580, 150.000000, 0.000000, 2168.662683
10581, 155.000000, 0.000000, 2168.662683
10582, 147.117792, 29.263548, 2168.662683
10583, 152.021718, 30.239000, 2168.662683
10584, 150.000000, 0.000000, 2158.246016
10585, 152.500000, 0.000000, 2168.662683
10586, 155.000000, 0.000000, 2158.246016
10587, 147.117792, 29.263548, 2158.246016
10588, 149.569755, 29.751274, 2168.662683
10589, 152.021718, 30.239000, 2158.246016
10590, 149.277709, 14.702571, 2168.662683
10591, 154.253633, 15.192657, 2168.662683
10592, 138.581930, 57.402515, 2168.662683
10593, 143.201328, 59.315932, 2168.662683
10594, 138.581930, 57.402515, 2158.246016
10595, 140.891629, 58.359223, 2168.662683
10596, 143.201328, 59.315932, 2158.246016
10597, 143.541050, 43.542702, 2168.662683
10598, 148.325752, 44.994125, 2168.662683
10599, 124.720442, 83.335535, 2168.662683
10600, 128.877790, 86.113386, 2168.662683
10601, 124.720442, 83.335535, 2158.246016
10602, 126.799116, 84.724461, 2168.662683
10603, 128.877790, 86.113386, 2158.246016
10604, 132.288190, 70.709511, 2168.662683
10605, 136.697796, 73.066494, 2168.662683
10606, 106.066017, 106.066017, 2168.662683
10607, 109.601551, 109.601551, 2168.662683
10608, 106.066017, 106.066017, 2158.246016
10609, 107.833784, 107.833784, 2168.662683
10610, 109.601551, 109.601551, 2158.246016
10611, 115.951568, 95.158993, 2168.662683
10612, 119.816620, 98.330959, 2168.662683
10613, 83.335535, 124.720442, 2168.662683
10614, 86.113386, 128.877790, 2168.662683
10615, 83.335535, 124.720442, 2158.246016
10616, 84.724461, 126.799116, 2168.662683
10617, 86.113386, 128.877790, 2158.246016
10618, 95.158993, 115.951568, 2168.662683
10619, 98.330959, 119.816620, 2168.662683
10620, 57.402515, 138.581930, 2168.662683
10621, 59.315932, 143.201328, 2168.662683
10622, 57.402515, 138.581930, 2158.246016
10623, 58.359223, 140.891629, 2168.662683
10624, 59.315932, 143.201328, 2158.246016
10625, 70.709511, 132.288190, 2168.662683
10626, 73.066494, 136.697796, 2168.662683
10627, 29.263548, 147.117792, 2168.662683
10628, 30.239000, 152.021718, 2168.662683
10629, 29.263548, 147.117792, 2158.246016
10630, 29.751274, 149.569755, 2168.662683
10631, 30.239000, 152.021718, 2158.246016
10632, 43.542702, 143.541050, 2168.662683
10633, 44.994125, 148.325752, 2168.662683
10634, 0.000000, 150.000000, 2168.662683
10635, 0.000000, 155.000000, 2168.662683
10636, 0.000000, 150.000000, 2158.246016
10637, 0.000000, 152.500000, 2168.662683
10638, 0.000000, 155.000000, 2158.246016
10639, 14.702571, 149.277709, 2168.662683
10640, 15.192657, 154.253633, 2168.662683
10641, 160.000000, 0.000000, 2168.662683
10642, 156.925645, 31.214452, 2168.662683
10643, 157.500000, 0.000000, 2168.662683
10644, 160.000000, 0.000000, 2158.246016
10645, 154.473682, 30.726726, 2168.662683
10646, 156.925645, 31.214452, 2158.246016
10647, 159.229556, 15.682742, 2168.662683
10648, 147.820725, 61.229349, 2168.662683
10649, 145.511026, 60.272641, 2168.662683
10650, 147.820725, 61.229349, 2158.246016
10651, 153.110454, 46.445548, 2168.662683
10652, 133.035138, 88.891237, 2168.662683
10653, 130.956464, 87.502312, 2168.662683
10654, 133.035138, 88.891237, 2158.246016
10655, 141.107402, 75.423478, 2168.662683
10656, 113.137085, 113.137085, 2168.662683
10657, 111.369318, 111.369318, 2168.662683
10658, 113.137085, 113.137085, 2158.246016
10659, 123.681673, 101.502925, 2168.662683
10660, 88.891237, 133.035138, 2168.662683
10661, 87.502312, 130.956464, 2168.662683
10662, 88.891237, 133.035138, 2158.246016
10663, 101.502925, 123.681673, 2168.662683
10664, 61.229349, 147.820725, 2168.662683
10665, 60.272641, 145.511026, 2168.662683
10666, 61.229349, 147.820725, 2158.246016
10667, 75.423478, 141.107402, 2168.662683
10668, 31.214452, 156.925645, 2168.662683
10669, 30.726726, 154.473682, 2168.662683
10670, 31.214452, 156.925645, 2158.246016
10671, 46.445548, 153.110454, 2168.662683
10672, 0.000000, 160.000000, 2168.662683
10673, 0.000000, 157.500000, 2168.662683
10674, 0.000000, 160.000000, 2158.246016
10675, 15.682742, 159.229556, 2168.662683
10676, 165.000000, 0.000000, 2168.662683
10677, 161.829571, 32.189903, 2168.662683
10678, 162.500000, 0.000000, 2168.662683
10679, 165.000000, 0.000000, 2158.246016
10680, 159.377608, 31.702177, 2168.662683
10681, 161.829571, 32.189903, 2158.246016
10682, 164.205480, 16.172828, 2168.662683
10683, 152.440123, 63.142766, 2168.662683
10684, 150.130424, 62.186058, 2168.662683
10685, 152.440123, 63.142766, 2158.246016
10686, 157.895155, 47.896972, 2168.662683
10687, 137.192486, 91.669088, 2168.662683
10688, 135.113812, 90.280163, 2168.662683
10689, 137.192486, 91.669088, 2158.246016
10690, 145.517009, 77.780462, 2168.662683
10691, 116.672619, 116.672619, 2168.662683
10692, 114.904852, 114.904852, 2168.662683
10693, 116.672619, 116.672619, 2158.246016
10694, 127.546725, 104.674892, 2168.662683
10695, 91.669088, 137.192486, 2168.662683
10696, 90.280163, 135.113812, 2168.662683
10697, 91.669088, 137.192486, 2158.246016
10698, 104.674892, 127.546725, 2168.662683
10699, 63.142766, 152.440123, 2168.662683
10700, 62.186058, 150.130424, 2168.662683
10701, 63.142766, 152.440123, 2158.246016
10702, 77.780462, 145.517009, 2168.662683
10703, 32.189903, 161.829571, 2168.662683
10704, 31.702177, 159.377608, 2168.662683
10705, 32.189903, 161.829571, 2158.246016
10706, 47.896972, 157.895155, 2168.662683
10707, 0.000000, 165.000000, 2168.662683
10708, 0.000000, 162.500000, 2168.662683
10709, 0.000000, 165.000000, 2158.246016
10710, 16.172828, 164.205480, 2168.662683
10711, 170.000000, 0.000000, 2168.662683
10712, 166.733498, 33.165355, 2168.662683
10713, 167.500000, 0.000000, 2168.662683
10714, 170.000000, 0.000000, 2158.246016
10715, 164.281534, 32.677629, 2168.662683
10716, 166.733498, 33.165355, 2158.246016
10717, 169.181404, 16.662914, 2168.662683
10718, 157.059521, 65.056184, 2168.662683
10719, 154.749822, 64.099475, 2168.662683
10720, 157.059521, 65.056184, 2158.246016
10721, 162.679857, 49.348395, 2168.662683
10722, 141.349834, 94.446940, 2168.662683
10723, 139.271160, 93.058014, 2168.662683
10724, 141.349834, 94.446940, 2158.246016
10725, 149.926615, 80.137445, 2168.662683
10726, 120.208153, 120.208153, 2168.662683
10727, 118.440386, 118.440386, 2168.662683
10728, 120.208153, 120.208153, 2158.246016
10729, 131.411777, 107.846858, 2168.662683
10730, 94.446940, 141.349834, 2168.662683
10731, 93.058014, 139.271160, 2168.662683
10732, 94.446940, 141.349834, 2158.246016
10733, 107.846858, 131.411777, 2168.662683
10734, 65.056184, 157.059521, 2168.662683
10735, 64.099475, 154.749822, 2168.662683
10736, 65.056184, 157.059521, 2158.246016
10737, 80.137445, 149.926615, 2168.662683
10738, 33.165355, 166.733498, 2168.662683
10739, 32.677629, 164.281534, 2168.662683
10740, 33.165355, 166.733498, 2158.246016
10741, 49.348395, 162.679857, 2168.662683
10742, 0.000000, 170.000000, 2168.662683
10743, 0.000000, 167.500000, 2168.662683
10744, 0.000000, 170.000000, 2158.246016
10745, 16.662914, 169.181404, 2168.662683
10746, 150.000000, 0.000000, 2189.496016
10747, 155.000000, 0.000000, 2189.496016
10748, 147.117792, 29.263548, 2189.496016
10749, 152.021718, 30.239000, 2189.496016
10750, 150.000000, 0.000000, 2179.079349
10751, 152.500000, 0.000000, 2189.496016
10752, 155.000000, 0.000000, 2179.079349
10753, 147.117792, 29.263548, 2179.079349
10754, 149.569755, 29.751274, 2189.496016
10755, 152.021718, 30.239000, 2179.079349
10756, 149.277709, 14.702571, 2189.496016
10757, 154.253633, 15.192657, 2189.496016
10758, 138.581930, 57.402515, 2189.496016
10759, 143.201328, 59.315932, 2189.496016
10760, 138.581930, 57.402515, 2179.079349
10761, 140.891629, 58.359223, 2189.496016
10762, 143.201328, 59.315932, 2179.079349
10763, 143.541050, 43.542702, 2189.496016
10764, 148.325752, 44.994125, 2189.496016
10765, 124.720442, 83.335535, 2189.496016
10766, 128.877790, 86.113386, 2189.496016
10767, 124.720442, 83.335535, 2179.079349
10768, 126.799116, 84.724461, 2189.496016
10769, 128.877790, 86.113386, 2179.079349
10770, 132.288190, 70.709511, 2189.496016
10771, 136.697796, 73.066494, 2189.496016
10772, 106.066017, 106.066017, 2189.496016
10773, 109.601551, 109.601551, 2189.496016
10774, 106.066017, 106.066017, 2179.079349
10775, 107.833784, 107.833784, 2189.496016
10776, 109.601551, 109.601551, 2179.079349
10777, 115.951568, 95.158993, 2189.496016
10778, 119.816620, 98.330959, 2189.496016
10779, 83.335535, 124.720442, 2189.496016
10780, 86.113386, 128.877790, 2189.496016
10781, 83.335535, 124.720442, 2179.079349
10782, 84.724461, 126.799116, 2189.496016
10783, 86.113386, 128.877790, 2179.079349
10784, 95.158993, 115.951568, 2189.496016
10785, 98.330959, 119.816620, 2189.496016
10786, 57.402515, 138.581930, 2189.496016
10787, 59.315932, 143.201328, 2189.496016
10788, 57.402515, 138.581930, 2179.079349
10789, 58.359223, 140.891629, 2189.496016
10790, 59.315932, 143.201328, 2179.079349
10791, 70.709511, 132.288190, 2189.496016
10792, 73.066494, 136.697796, 2189.496016
10793, 29.263548, 147.117792, 2189.496016
10794, 30.239000, 152.021718, 2189.496016
10795, 29.263548, 147.117792, 2179.079349
10796, 29.751274, 149.569755, 2189.496016
10797, 30.239000, 152.021718, 2179.079349
10798, 43.542702, 143.541050, 2189.496016
10799, 44.994125, 148.325752, 2189.496016
10800, 0.000000, 150.000000, 2189.496016
10801, 0.000000, 155.000000, 2189.496016
10802, 0.000000, 150.000000, 2179.079349
10803, 0.000000, 152.500000, 2189.496016
10804, 0.000000, 155.000000, 2179.079349
10805, 14.702571, 149.277709, 2189.496016
10806, 15.192657, 154.253633, 2189.496016
10807, 160.000000, 0.000000, 2189.496016
10808, 156.925645, 31.214452, 2189.496016
10809, 157.500000, 0.000000, 2189.496016
10810, 160.000000, 0.000000, 2179.079349
10811, 154.473682, 30.726726, 2189.496016
10812, 156.925645, 31.214452, 2179.079349
10813, 159.229556, 15.682742, 2189.496016
10814, 147.820725, 61.229349, 2189.496016
10815, 145.511026, 60.272641, 2189.496016
10816, 147.820725, 61.229349, 2179.079349
10817, 153.110454, 46.445548, 2189.496016
10818, 133.035138, 88.891237, 2189.496016
10819, 130.956464, 87.502312, 2189.496016
10820, 133.035138, 88.891237, 2179.079349
10821, 141.107402, 75.423478, 2189.496016
10822, 113.137085, 113.137085, 2189.496016
10823, 111.369318, 111.369318, 2189.496016
10824, 113.137085, 113.137085, 2179.079349
10825, 123.681673, 101.502925, 2189.496016
10826, 88.891237, 133.035138, 2189.496016
10827, 87.502312, 130.956464, 2189.496016
10828, 88.891237, 133.035138, 2179.079349
10829, 101.502925, 123.681673, 2189.496016
10830, 61.229349, 147.820725, 2189.496016
10831, 60.272641, 145.511026, 2189.496016
10832, 61.229349, 147.820725, 2179.079349
10833, 75.423478, 141.107402, 2189.496016
10834, 31.214452, 156.925645, 2189.496016
10835, 30.726726, 154.473682, 2189.496016
10836, 31.214452, 156.925645, 2179.079349
10837, 46.445548, 153.110454, 2189.496016
10838, 0.000000, 160.000000, 2189.496016
10839, 0.000000, 157.500000, 2189.496016
10840, 0.000000, 160.000000, 2179.079349
10841, 15.682742, 159.229556, 2189.496016
10842, 165.000000, 0.000000, 2189.496016
10843, 161.829571, 32.189903, 2189.496016
10844, 162.500000, 0.000000, 2189.496016
10845, 165.000000, 0.000000, 2179.079349
10846, 159.377608, 31.702177, 2189.496016
10847, 161.829571, 32.189903, 2179.079349
10848, 164.205480, 16.172828, 2189.496016
10849, 152.440123, 63.142766, 2189.496016
10850, 150.130424, 62.186058, 2189.496016
10851, 152.440123, 63.142766, 2179.079349
10852, 157.895155, 47.896972, 2189.496016
10853, 137.192486, 91.669088, 2189.496016
10854, 135.113812, 90.280163, 2189.496016
10855, 137.192486, 91.669088, 2179.079349
10856, 145.517009, 77.780462, 2189.496016
10857, 116.672619, 116.672619, 2189.496016
10858, 114.904852, 114.904852, 2189.496016
10859, 116.672619, 116.672619, 2179.079349
10860, 127.546725, 104.674892, 2189.496016
10861, 91.669088, 137.192486, 2189.496016
10862, 90.280163, 135.113812, 2189.496016
10863, 91.669088, 137.192486, 2179.079349
10864, 104.674892, 127.546725, 2189.496016
10865, 63.142766, 152.440123, 2189.496016
10866, 62.186058, 150.130424, 2189.496016
10867, 63.142766, 152.440123, 2179.079349
10868, 77.780462, 145.517009, 2189.496016
10869, 32.189903, 161.829571, 2189.496016
10870, 31.702177, 159.377608, 2189.496016
10871, 32.189903, 161.829571, 2179.079349
10872, 47.896972, 157.895155, 2189.496016
10873, 0.000000, 165.000000, 2189.496016
10874, 0.000000, 162.500000, 2189.496016
10875, 0.000000, 165.000000, 2179.079349
10876, 16.172828, 164.205480, 2189.496016
10877, 170.000000, 0.000000, 2189.496016
10878, 166.733498, 33.165355, 2189.496016
10879, 167.500000, 0.000000, 2189.496016
10880, 170.000000, 0.000000, 2179.079349
10881, 164.281534, 32.677629, 2189.496016
10882, 166.733498, 33.165355, 2179.079349
10883, 169.181404, 16.662914, 2189.496016
10884, 157.059521, 65.056184, 2189.496016
10885, 154.749822, 64.099475, 2189.496016
10886, 157.059521, 65.056184, 2179.079349
10887, 162.679857, 49.348395, 2189.496016
10888, 141.349834, 94.446940, 2189.496016
10889, 139.271160, 93.058014, 2189.496016
10890, 141.349834, 94.446940, 2179.079349
10891, 149.926615, 80.137445, 2189.496016
10892, 120.208153, 120.208153, 2189.496016
10893, 118.440386, 118.440386, 2189.496016
10894, 120.208153, 120.208153, 2179.079349
10895, 131.411777, 107.846858, 2189.496016
10896, 94.446940, 141.349834, 2189.496016
10897, 93.058014, 139.271160, 2189.496016
10898, 94.446940, 141.349834, 2179.079349
10899, 107.846858, 131.411777, 2189.496016
10900, 65.056184, 157.059521, 2189.496016
10901, 64.099475, 154.749822, 2189.496016
10902, 65.056184, 157.059521, 2179.079349
10903, 80.137445, 149.926615, 2189.496016
10904, 33.165355, 166.733498, 2189.496016
10905, 32.677629, 164.281534, 2189.496016
10906, 33.165355, 166.733498, 2179.079349
10907, 49.348395, 162.679857, 2189.496016
10908, 0.000000, 170.000000, 2189.496016
10909, 0.000000, 167.500000, 2189.496016
10910, 0.000000, 170.000000, 2179.079349
10911, 16.662914, 169.181404, 2189.496016
10912, 150.000000, 0.000000, 2210.329349
10913, 155.000000, 0.000000, 2210.329349
10914, 147.117792, 29.263548, 2210.329349
10915, 152.021718, 30.239000, 2210.329349
10916, 150.000000, 0.000000, 2199.912683
10917, 152.500000, 0.000000, 2210.329349
10918, 155.000000, 0.000000, 2199.912683
10919, 147.117792, 29.263548, 2199.912683
10920, 149.569755, 29.751274, 2210.329349
10921, 152.021718, 30.239000, 2199.912683
10922, 149.277709, 14.702571, 2210.329349
10923, 154.253633, 15.192657, 2210.329349
10924, 138.581930, 57.402515, 2210.329349
10925, 143.201328, 59.315932, 2210.329349
10926, 138.581930, 57.402515, 2199.912683
10927, 140.891629, 58.359223, 2210.329349
10928, 143.201328, 59.315932, 2199.912683
10929, 143.541050, 43.542702, 2210.329349
10930, 148.325752, 44.994125, 2210.329349
10931, 124.720442, 83.335535, 2210.329349
10932, 128.877790, 86.113386, 2210.329349
10933, 124.720442, 83.335535, 2199.912683
10934, 126.799116, 84.724461, 2210.329349
10935, 128.877790, 86.113386, 2199.912683
10936, 132.288190, 70.709511, 2210.329349
10937, 136.697796, 73.066494, 2210.329349
10938, 106.066017, 106.066017, 2210.329349
10939, 109.601551, 109.601551, 2210.329349
10940, 106.066017, 106.066017, 2199.912683
10941, 107.833784, 107.833784, 2210.329349
10942, 109.601551, 109.601551, 2199.912683
10943, 115.951568, 95.158993, 2210.329349
10944, 119.816620, 98.330959, 2210.329349
10945, 83.335535, 124.720442, 2210.329349
10946, 86.113386, 128.877790, 2210.329349
10947, 83.335535, 124.720442, 2199.912683
10948, 84.724461, 126.799116, 2210.329349
10949, 86.113386, 128.877790, 2199.912683
10950, 95.158993, 115.951568, 2210.329349
10951, 98.330959, 119.816620, 2210.329349
10952, 57.402515, 138.581930, 2210.329349
10953, 59.315932, 143.201328, 2210.329349
10954, 57.402515, 138.581930, 2199.912683
10955, 58.359223, 140.891629, 2210.329349
10956, 59.315932, 143.201328, 2199.912683
10957, 70.709511, 132.288190, 2210.329349
10958, 73.066494, 136.697796, 2210.329349
10959, 29.263548, 147.117792, 2210.329349
10960, 30.239000, 152.021718, 2210.329349
10961, 29.263548, 147.117792, 2199.912683
10962, 29.751274, 149.569755, 2210.329349
10963, 30.239000, 152.021718, 2199.912683
10964, 43.542702, 143.541050, 2210.329349
10965, 44.994125, 148.325752, 2210.329349
10966, 0.000000, 150.000000, 2210.329349
10967, 0.000000, 155.000000, 2210.329349
10968, 0.000000, 150.000000, 2199.912683
10969, 0.000000, 152.500000, 2210.329349
10970, 0.000000, 155.000000, 2199.912683
10971, 14.702571, 149.277709, 2210.329349
10972, 15.192657, 154.253633, 2210.329349
10973, 160.000000, 0.000000, 2210.329349
10974, 156.925645, 31.214452, 2210.329349
10975, 157.500000, 0.000000, 2210.329349
10976, 160.000000, 0.000000, 2199.912683
10977, 154.473682, 30.726726, 2210.329349
10978, 156.925645, 31.214452, 2199.912683
10979, 159.229556, 15.682742, 2210.329349
10980, 147.820725, 61.229349, 2210.329349
10981, 145.511026, 60.272641, 2210.329349
10982, 147.820725, 61.229349, 2199.912683
10983, 153.110454, 46.445548, 2210.329349
10984, 133.035138, 88.891237, 2210.329349
10985, 130.956464, 87.502312, 2210.329349
10986, 133.035138, 88.891237, 2199.912683
10987, 141.107402, 75.423478, 2210.329349
10988, 113.137085, 113.137085, 2210.329349
10989, 111.369318, 111.369318, 2210.329349
10990, 113.137085, 113.137085, 2199.912683
10991, 123.681673, 101.502925, 2210.329349
10992, 88.891237, 133.035138, 2210.329349
10993, 87.502312, 130.956464, 2210.329349
10994, 88.891237, 133.035138, 2199.912683
10995, 101.502925, 123.681673, 2210.329349
10996, 61.229349, 147.820725, 2210.329349
10997, 60.272641, 145.511026, 2210.329349
10998, 61.229349, 147.820725, 2199.912683
10999, 75.423478, 141.107402, 2210.329349
11000, 31.214452, 156.925645, 2210.329349
11001, 30.726726, 154.473682, 2210.329349
11002, 31.214452, 156.925645, 2199.912683
11003, 46.445548, 153.110454, 2210.329349
11004, 0.000000, 160.000000, 2210.329349
11005, 0.000000, 157.500000, 2210.329349
11006, 0.000000, 160.000000, 2199.912683
11007, 15.682742, 159.229556, 2210.329349
11008, 165.000000, 0.000000, 2210.329349
11009, 161.829571, 32.189903, 2210.329349
11010, 162.500000, 0.000000, 2210.329349
11011, 165.000000, 0.000000, 2199.912683
11012, 159.377608, 31.702177, 2210.329349
11013, 161.829571, 32.189903, 2199.912683
11014, 164.205480, 16.172828, 2210.329349
11015, 152.440123, 63.142766, 2210.329349
11016, 150.130424, 62.186058, 2210.329349
11017, 152.440123, 63.142766, 2199.912683
11018, 157.895155, 47.896972, 2210.329349
11019, 137.192486, 91.669088, 2210.329349
11020, 135.113812, 90.280163, 2210.329349
11021, 137.192486, 91.669088, 2199.912683
11022, 145.517009, 77.780462, 2210.329349
11023, 116.672619, 116.672619, 2210.329349
11024, 114.904852, 114.904852, 2210.329349
11025, 116.672619, 116.672619, 2199.912683
11026, 127.546725, 104.674892, 2210.329349
11027, 91.669088, 137.192486, 2210.329349
11028, 90.280163, 135.113812, 2210.329349
11029, 91.669088, 137.192486, 2199.912683
11030, 104.674892, 127.546725, 2210.329349
11031, 63.142766, 152.440123, 2210.329349
11032, 62.186058, 150.130424, 2210.329349
11033, 63.142766, 152.440123, 2199.912683
11034, 77.780462, 145.517009, 2210.329349
11035, 32.189903, 161.829571, 2210.329349
11036, 31.702177, 159.377608, 2210.329349
11037, 32.189903, 161.829571, 2199.912683
11038, 47.896972, 157.895155, 2210.329349
11039, 0.000000, 165.000000, 2210.329349
11040, 0.000000, 162.500000, 2210.329349
11041, 0.000000, 165.000000, 2199.912683
11042, 16.172828, 164.205480, 2210.329349
11043, 170.000000, 0.000000, 2210.329349
11044, 166.733498, 33.165355, 2210.329349
11045, 167.500000, 0.000000, 2210.329349
11046, 170.000000, 0.000000, 2199.912683
11047, 164.281534, 32.677629, 2210.329349
11048, 166.733498, 33.165355, 2199.912683
11049, 169.181404, 16.662914, 2210.329349
11050, 157.059521, 65.056184, 2210.329349
11051, 154.749822, 64.099475, 2210.329349
11052, 157.059521, 65.056184, 2199.912683
11053, 162.679857, 49.348395, 2210.329349
11054, 141.349834, 94.446940, 2210.329349
11055, 139.271160, 93.058014, 2210.329349
11056, 141.349834, 94.446940, 2199.912683
11057, 149.926615, 80.137445, 2210.329349
11058, 120.208153, 120.208153, 2210.329349
11059, 118.440386, 118.440386, 2210.329349
11060, 120.208153, 120.208153, 2199.912683
11061, 131.411777, 107.846858, 2210.329349
11062, 94.446940, 141.349834, 2210.329349
11063, 93.058014, 139.271160, 2210.329349
11064, 94.446940, 141.349834, 2199.912683
11065, 107.846858, 131.411777, 2210.329349
11066, 65.056184, 157.059521, 2210.329349
11067, 64.099475, 154.749822, 2210.329349
11068, 65.056184, 157.059521, 2199.912683
11069, 80.137445, 149.926615, 2210.329349
11070, 33.165355, 166.733498, 2210.329349
11071, 32.677629, 164.281534, 2210.329349
11072, 33.165355, 166.733498, 2199.912683
11073, 49.348395, 162.679857, 2210.329349
11074, 0.000000, 170.000000, 2210.329349
11075, 0.000000, 167.500000, 2210.329349
11076, 0.000000, 170.000000, 2199.912683
11077, 16.662914, 169.181404, 2210.329349
11078, 150.000000, 0.000000, 2231.162683
11079, 155.000000, 0.000000, 2231.162683
11080, 147.117792, 29.263548, 2231.162683
11081, 152.021718, 30.239000, 2231.162683
11082, 150.000000, 0.000000, 2220.746016
11083, 152.500000, 0.000000, 2231.162683
11084, 155.000000, 0.000000, 2220.746016
11085, 147.117792, 29.263548, 2220.746016
11086, 149.569755, 29.751274, 2231.162683
11087, 152.021718, 30.239000, 2220.746016
11088, 149.277709, 14.702571, 2231.162683
11089, 154.253633, 15.192657, 2231.162683
11090, 138.581930, 57.402515, 2231.162683
11091, 143.201328, 59.315932, 2231.162683
11092, 138.581930, 57.402515, 2220.746016
11093, 140.891629, 58.359223, 2231.162683
11094, 143.201328, 59.315932, 2220.746016
11095, 143.541050, 43.542702, 2231.162683
11096, 148.325752, 44.994125, 2231.162683
11097, 124.720442, 83.335535, 2231.162683
11098, 128.877790, 86.113386, 2231.162683
11099, 124.720442, 83.335535, 2220.746016
11100, 126.799116, 84.724461, 2231.162683
11101, 128.877790, 86.113386, 2220.746016
11102, 132.288190, 70.709511, 2231.162683
11103, 136.697796, 73.066494, 2231.162683
11104, 106.066017, 106.066017, 2231.162683
11105, 109.601551, 109.601551, 2231.162683
11106, 106.066017, 106.066017, 2220.746016
11107, 107.833784, 107.833784, 2231.162683
11108, 109.601551, 109.601551, 2220.746016
11109, 115.951568, 95.158993, 2231.162683
11110, 119.816620, 98.330959, 2231.162683
11111, 83.335535, 124.720442, 2231.162683
11112, 86.113386, 128.877790, 2231.162683
11113, 83.335535, 124.720442, 2220.746016
11114, 84.724461, 126.799116, 2231.162683
11115, 86.113386, 128.877790, 2220.746016
11116, 95.158993, 115.951568, 2231.162683
11117, 98.330959, 119.816620, 2231.162683
11118, 57.402515, 138.581930, 2231.162683
11119, 59.315932, 143.201328, 2231.162683
11120, 57.402515, 138.581930, 2220.746016
11121, 58.359223, 140.891629, 2231.162683
11122, 59.315932, 143.201328, 2220.746016
11123, 70.709511, 132.288190, 2231.162683
11124, 73.066494, 136.697796, 2231.162683
11125, 29.263548, 147.117792, 2231.162683
11126, 30.239000, 152.021718, 2231.162683
11127, 29.263548, 147.117792, 2220.746016
11128, 29.751274, 149.569755, 2231.162683
11129, 30.239000, 152.021718, 2220.746016
11130, 43.542702, 143.541050, 2231.162683
11131, 44.994125, 148.325752, 2231.162683
11132, 0.000000, 150.000000, 2231.162683
11133, 0.000000, 155.000000, 2231.162683
11134, 0.000000, 150.000000, 2220.746016
11135, 0.000000, 152.500000, 2231.162683
11136, 0.000000, 155.000000, 2220.746016
11137, 14.702571, 149.277709, 2231.162683
11138, 15.192657, 154.253633, 2231.162683
11139, 160.000000, 0.000000, 2231.162683
11140, 156.925645, 31.214452, 2231.162683
11141, 157.500000, 0.000000, 2231.162683
11142, 160.000000, 0.000000, 2220.746016
11143, 154.473682, 30.726726, 2231.162683
11144, 156.925645, 31.214452, 2220.746016
11145, 159.229556, 15.682742, 2231.162683
11146, 147.820725, 61.229349, 2231.162683
11147, 145.511026, 60.272641, 2231.162683
11148, 147.820725, 61.229349, 2220.746016
11149, 153.110454, 46.445548, 2231.162683
11150, 133.035138, 88.891237, 2231.162683
11151, 130.956464, 87.502312, 2231.162683
11152, 133.035138, 88.891237, 2220.746016
11153, 141.107402, 75.423478, 2231.162683
11154, 113.137085, 113.137085, 2231.162683
11155, 111.369318, 111.369318, 2231.162683
11156, 113.137085, 113.137085, 2220.746016
11157, 123.681673, 101.502925, 2231.162683
11158, 88.891237, 133.035138, 2231.162683
11159, 87.502312, 130.956464, 2231.162683
11160, 88.891237, 133.035138, 2220.746016
11161, 101.502925, 123.681673, 2231.162683
11162, 61.229349, 147.820725, 2231.162683
11163, 60.272641, 145.511026, 2231.162683
11164, 61.229349, 147.820725, 2220.746016
11165, 75.423478, 141.107402, 2231.162683
11166, 31.214452, 156.925645, 2231.162683
11167, 30.726726, 154.473682, 2231.162683
11168, 31.214452, 156.925645, 2220.746016
11169, 46.445548, 153.110454, 2231.162683
11170, 0.000000, 160.000000, 2231.162683
11171, 0.000000, 157.500000, 2231.162683
11172, 0.000000, 160.000000, 2220.746016
11173, 15.682742, 159.229556, 2231.162683
11174, 165.000000, 0.000000, 2231.162683
11175, 161.829571, 32.189903, 2231.162683
11176, 162.500000, 0.000000, 2231.162683
11177, 165.000000, 0.000000, 2220.746016
11178, 159.377608, 31.702177, 2231.162683
11179, 161.829571, 32.189903, 2220.746016
11180, 164.205480, 16.172828, 2231.162683
11181, 152.440123, 63.142766, 2231.162683
11182, 150.130424, 62.186058, 2231.162683
11183, 152.440123, 63.142766, 2220.746016
11184, 157.895155, 47.896972, 2231.162683
11185, 137.192486, 91.669088, 2231.162683
11186, 135.113812, 90.280163, 2231.162683
11187, 137.192486, 91.669088, 2220.746016
11188, 145.517009, 77.780462, 2231.162683
11189, 116.672619, 116.672619, 2231.162683
11190, 114.904852, 114.904852, 2231.162683
11191, 116.672619, 116.672619, 2220.746016
11192, 127.546725, 104.674892, 2231.162683
11193, 91.669088, 137.192486, 2231.162683
11194, 90.280163, 135.113812, 2231.162683
11195, 91.669088, 137.192486, 2220.746016
11196, 104.674892, 127.546725, 2231.162683
11197, 63.142766, 152.440123, 2231.162683
11198, 62.186058, 150.130424, 2231.162683
11199, 63.142766, 152.440123, 2220.746016
11200, 77.780462, 145.517009, 2231.162683
11201, 32.189903, 161.829571, 2231.162683
11202, 31.702177, 159.377608, 2231.162683
11203, 32.189903, 161.829571, 2220.746016
11204, 47.896972, 157.895155, 2231.162683
11205, 0.000000, 165.000000, 2231.162683
11206, 0.000000, 162.500000, 2231.162683
11207, 0.000000, 165.000000, 2220.746016
11208, 16.172828, 164.205480, 2231.162683
11209, 170.000000, 0.000000, 2231.162683
11210, 166.733498, 33.165355, 2231.162683
11211, 167.500000, 0.000000, 2231.162683
11212, 170.000000, 0.000000, 2220.746016
11213, 164.281534, 32.677629, 2231.162683
11214, 166.733498, 33.165355, 2220.746016
11215, 169.181404, 16.662914, 2231.162683
11216, 157.059521, 65.056184, 2231.162683
11217, 154.749822, 64.099475, 2231.162683
11218, 157.059521, 65.056184, 2220.746016
11219, 162.679857, 49.348395, 2231.162683
11220, 141.349834, 94.446940, 2231.162683
11221, 139.271160, 93.058014, 2231.162683
11222, 141.349834, 94.446940, 2220.746016
11223, 149.926615, 80.137445, 2231.162683
11224, 120.208153, 120.208153, 2231.162683
11225, 118.440386, 118.440386, 2231.162683
11226, 120.208153, 120.208153, 2220.746016
11227, 131.411777, 107.846858, 2231.162683
11228, 94.446940, 141.349834, 2231.162683
11229, 93.058014, 139.271160, 2231.162683
11230, 94.446940, 141.349834, 2220.746016
11231, 107.846858, 131.411777, 2231.162683
11232, 65.056184, 157.059521, 2231.162683
11233, 64.099475, 154.749822, 2231.162683
11234, 65.056184, 157.059521, 2220.746016
11235, 80.137445, 149.926615, 2231.162683
11236, 33.165355, 166.733498, 2231.162683
11237, 32.677629, 164.281534, 2231.162683
11238, 33.165355, 166.733498, 2220.746016
11239, 49.348395, 162.679857, 2231.162683
11240, 0.000000, 170.000000, 2231.162683
11241, 0.000000, 167.500000, 2231.162683
11242, 0.000000, 170.000000, 2220.746016
11243, 16.662914, 169.181404, 2231.162683
11244, 150.000000, 0.000000, 2251.996016
11245, 155.000000, 0.000000, 2251.996016
11246, 147.117792, 29.263548, 2251.996016
11247, 152.021718, 30.239000, 2251.996016
11248, 150.000000, 0.000000, 2241.579349
11249, 152.500000, 0.000000, 2251.996016
11250, 155.000000, 0.000000, 2241.579349
11251, 147.117792, 29.263548, 2241.579349
11252, 149.569755, 29.751274, 2251.996016
11253, 152.021718, 30.239000, 2241.579349
11254, 149.277709, 14.702571, 2251.996016
11255, 154.253633, 15.192657, 2251.996016
11256, 138.581930, 57.402515, 2251.996016
11257, 143.201328, 59.315932, 2251.996016
11258, 138.581930, 57.402515, 2241.579349
11259, 140.891629, 58.359223, 2251.996016
11260, 143.201328, 59.315932, 2241.579349
11261, 143.541050, 43.542702, 2251.996016
11262, 148.325752, 44.994125, 2251.996016
11263, 124.720442, 83.335535, 2251.996016
11264, 128.877790, 86.113386, 2251.996016
11265, 124.720442, 83.335535, 2241.579349
11266, 126.799116, 84.724461, 2251.996016
11267, 128.877790, 86.113386, 2241.579349
11268, 132.288190, 70.709511, 2251.996016
11269, 136.697796, 73.066494, 2251.996016
11270, 106.066017, 106.066017, 2251.996016
11271, 109.601551, 109.601551, 2251.996016
11272, 106.066017, 106.066017, 2241.579349
11273, 107.833784, 107.833784, 2251.996016
11274, 109.601551, 109.601551, 2241.579349
11275, 115.951568, 95.158993, 2251.996016
11276, 119.816620, 98.330959, 2251.996016
11277, 83.335535, 124.720442, 2251.996016
11278, 86.113386, 128.877790, 2251.996016
11279, 83.335535, 124.720442, 2241.579349
11280, 84.724461, 126.799116, 2251.996016
11281, 86.113386, 128.877790, 2241.579349
11282, 95.158993, 115.951568, 2251.996016
11283, 98.330959, 119.816620, 2251.996016
11284, 57.402515, 138.581930, 2251.996016
11285, 59.315932, 143.201328, 2251.996016
11286, 57.402515, 138.581930, 2241.579349
11287, 58.359223, 140.891629, 2251.996016
11288, 59.315932, 143.201328, 2241.579349
11289, 70.709511, 132.288190, 2251.996016
11290, 73.066494, 136.697796, 2251.996016
11291, 29.263548, 147.117792, 2251.996016
11292, 30.239000, 152.021718, 2251.996016
11293, 29.263548, 147.117792, 2241.579349
11294, 29.751274, 149.569755, 2251.996016
11295, 30.239000, 152.021718, 2241.579349
11296, 43.542702, 143.541050, 2251.996016
11297, 44.994125, 148.325752, 2251.996016
11298, 0.000000, 150.000000, 2251.996016
11299, 0.000000, 155.000000, 2251.996016
11300, 0.000000, 150.000000, 2241.579349
11301, 0.000000, 152.500000, 2251.996016
11302, 0.000000, 155.000000, 2241.579349
11303, 14.702571, 149.277709, 2251.996016
11304, 15.192657, 154.253633, 2251.996016
11305, 160.000000, 0.000000, 2251.996016
11306, 156.925645, 31.214452, 2251.996016
11307, 157.500000, 0.000000, 2251.996016
11308, 160.000000, 0.000000, 2241.579349
11309, 154.473682, 30.726726, 2251.996016
11310, 156.925645, 31.214452, 2241.579349
11311, 159.229556, 15.682742, 2251.996016
11312, 147.820725, 61.229349, 2251.996016
11313, 145.511026, 60.272641, 2251.996016
11314, 147.820725, 61.229349, 2241.579349
11315, 153.110454, 46.445548, 2251.996016
11316, 133.035138, 88.891237, 2251.996016
11317, 130.956464, 87.502312, 2251.996016
11318, 133.035138, 88.891237, 2241.579349
11319, 141.107402, 75.423478, 2251.996016
11320, 113.137085, 113.137085, 2251.996016
11321, 111.369318, 111.369318, 2251.996016
11322, 113.137085, 113.137085, 2241.579349
11323, 123.681673, 101.502925, 2251.996016
11324, 88.891237, 133.035138, 2251.996016
11325, 87.502312, 130.956464, 2251.996016
11326, 88.891237, 133.035138, 2241.579349
11327, 101.502925, 123.681673, 2251.996016
11328, 61.229349, 147.820725, 2251.996016
11329, 60.272641, 145.511026, 2251.996016
11330, 61.229349, 147.820725, 2241.579349
11331, 75.423478, 141.107402, 2251.996016
11332, 31.214452, 156.925645, 2251.996016
11333, 30.726726, 154.473682, 2251.996016
11334, 31.214452, 156.925645, 2241.579349
11335, 46.445548, 153.110454, 2251.996016
11336, 0.000000, 160.000000, 2251.996016
11337, 0.000000, 157.500000, 2251.996016
11338, 0.000000, 160.000000, 2241.579349
11339, 15.682742, 159.229556, 2251.996016
11340, 165.000000, 0.000000, 2251.996016
11341, 161.829571, 32.189903, 2251.996016
11342, 162.500000, 0.000000, 2251.996016
11343, 165.000000, 0.000000, 2241.579349
11344, 159.377608, 31.702177, 2251.996016
11345, 161.829571, 32.189903, 2241.579349
11346, 164.205480, 16.172828, 2251.996016
11347, 152.440123, 63.142766, 2251.996016
11348, 150.130424, 62.186058, 2251.996016
11349, 152.440123, 63.142766, 2241.579349
11350, 157.895155, 47.896972, 2251.996016
11351, 137.192486, 91.669088, 2251.996016
11352, 135.113812, 90.280163, 2251.996016
11353, 137.192486, 91.669088, 2241.579349
11354, 145.517009, 77.780462, 2251.996016
11355, 116.672619, 116.672619, 2251.996016
11356, 114.904852, 114.904852, 2251.996016
11357, 116.672619, 116.672619, 2241.579349
11358, 127.546725, 104.674892, 2251.996016
11359, 91.669088, 137.192486, 2251.996016
11360, 90.280163, 135.113812, 2251.996016
11361, 91.669088, 137.192486, 2241.579349
11362, 104.674892, 127.546725, 2251.996016
11363, 63.142766, 152.440123, 2251.996016
11364, 62.186058, 150.130424, 2251.996016
11365, 63.142766, 152.440123, 2241.579349
11366, 77.780462, 145.517009, 2251.996016
11367, 32.189903, 161.829571, 2251.996016
11368, 31.702177, 159.377608, 2251.996016
11369, 32.189903, 161.829571, 2241.579349
11370, 47.896972, 157.895155, 2251.996016
11371, 0.000000, 165.000000, 2251.996016
11372, 0.000000, 162.500000, 2251.996016
11373, 0.000000, 165.000000, 2241.579349
11374, 16.172828, 164.205480, 2251.996016
11375, 170.000000, 0.000000, 2251.996016
11376, 166.733498, 33.165355, 2251.996016
11377, 167.500000, 0.000000, 2251.996016
11378, 170.000000, 0.000000, 2241.579349
11379, 164.281534, 32.677629, 2251.996016
11380, 166.733498, 33.165355, 2241.579349
11381, 169.181404, 16.662914, 2251.996016
11382, 157.059521, 65.056184, 2251.996016
11383, 154.749822, 64.099475, 2251.996016
11384, 157.059521, 65.056184, 2241.579349
11385, 162.679857, 49.348395, 2251.996016
11386, 141.349834, 94.446940, 2251.996016
11387, 139.271160, 93.058014, 2251.996016
11388, 141.349834, 94.446940, 2241.579349
11389, 149.926615, 80.137445, 2251.996016
11390, 120.208153, 120.208153, 2251.996016
11391, 118.440386, 118.440386, 2251.996016
11392, 120.208153, 120.208153, 2241.579349
11393, 131.411777, 107.846858, 2251.996016
11394, 94.446940, 141.349834, 2251.996016
11395, 93.058014, 139.271160, 2251.996016
11396, 94.446940, 141.349834, 2241.579349
11397, 107.846858, 131.411777, 2251.996016
11398, 65.056184, 157.059521, 2251.996016
11399, 64.099475, 154.749822, 2251.996016
11400, 65.056184, 157.059521, 2241.579349
11401, 80.137445, 149.926615, 2251.996016
11402, 33.165355, 166.733498, 2251.996016
11403, 32.677629, 164.281534, 2251.996016
11404, 33.165355, 166.733498, 2241.579349
11405, 49.348395, 162.679857, 2251.996016
11406, 0.000000, 170.000000, 2251.996016
11407, 0.000000, 167.500000, 2251.996016
11408, 0.000000, 170.000000, 2241.579349
11409, 16.662914, 169.181404, 2251.996016
*ELEMENT, TYPE=C3D20R, ELSET=EALL
1, 1, 2, 3, 4, 5, 6, 7, 8, 9, 10, 11, 12, 13, 14, 15,
16, 17, 18, 19, 20
2, 5, 6, 7, 8, 21, 22, 23, 24, 13, 14, 15, 16, 25, 26, 27,
28, 29, 30, 31, 32
3, 21, 22, 23, 24, 33, 34, 35, 36, 25, 26, 27, 28, 37, 38, 39,
40, 41, 42, 43, 44
4, 33, 34, 35, 36, 45, 46, 47, 48, 37, 38, 39, 40, 49, 50, 51,
52, 53, 54, 55, 56
5, 45, 46, 47, 48, 57, 58, 59, 60, 49, 50, 51, 52, 61, 62, 63,
64, 65, 66, 67, 68
6, 57, 58, 59, 60, 69, 70, 71, 72, 61, 62, 63, 64, 73, 74, 75,
76, 77, 78, 79, 80
7, 69, 70, 71, 72, 81, 82, 83, 84, 73, 74, 75, 76, 85, 86, 87,
88, 89, 90, 91, 92
8, 81, 82, 83, 84, 93, 94, 95, 96, 85, 86, 87, 88, 97, 98, 99,
100, 101, 102, 103, 104
9, 4, 3, 105, 106, 8, 7, 107, 108, 11, 109, 110, 111, 15, 112, 113,
114, 20, 19, 115, 116
10, 8, 7, 107, 108, 24, 23, 117, 118, 15, 112, 113, 114, 27, 119, 120,
121, 32, 31, 122, 123
11, 24, 23, 117, 118, 36, 35, 124, 125, 27, 119, 120, 121, 39, 126, 127,
128, 44, 43, 129, 130
12, 36, 35, 124, 125, 48, 47, 131, 132, 39, 126, 127, 128, 51, 133, 134,
135, 56, 55, 136, 137
13, 48, 47, 131, 132, 60, 59, 138, 139, 51, 133, 134, 135, 63, 140, 141,
142, 68, 67, 143, 144
14, 60, 59, 138, 139, 72, 71, 145, 146, 63, 140, 141, 142, 75, 147, 148,
149, 80, 79, 150, 151
15, 72, 71, 145, 146, 84, 83, 152, 153, 75, 147, 148, 149, 87, 154, 155,
156, 92, 91, 157, 158
16, 84, 83, 152, 153, 96, 95, 159, 160, 87, 154, 155, 156, 99, 161, 162,
163, 104, 103, 164, 165
17, 106, 105, 166, 167, 108, 107, 168, 169, 110, 170, 171, 172, 113, 173, 174,
175, 116, 115, 176, 177
18, 108, 107, 168, 169, 118, 117, 178, 179, 113, 173, 174, 175, 120, 180, 181,
182, 123, 122, 183, 184
19, 118, 117, 178, 179, 125, 124, 185, 186, 120, 180, 181, 182, 127, 187, 188,
189, 130, 129, 190, 191
20, 125, 124, 185, 186, 132, 131, 192, 193, 127, 187, 188, 189, 134, 194, 195,
196, 137, 136, 197, 198
21, 132, 131, 192, 193, 139, 138, 199, 200, 134, 194, 195, 196, 141, 201, 202,
203, 144, 143, 204, 205
22, 139, 138, 199, 200, 146, 145, 206, 207, 141, 201, 202, 203, 148, 208, 209,
210, 151, 150, 211, 212
23, 146, 145, 206, 207, 153, 152, 213, 214, 148, 208, 209, 210, 155, 215, 216,
217, 158, 157, 218, 219
24, 153, 152, 213, 214, 160, 159, 220, 221, 155, 215, 216, 217, 162, 222, 223,
224, 165, 164, 225, 226
25, 167, 166, 227, 228, 169, 168, 229, 230, 171, 231, 232, 233, 174, 234, 235,
236, 177, 176, 237, 238
26, 169, 168, 229, 230, 179, 178, 239, 240, 174, 234, 235, 236, 181, 241, 242,
243, 184, 183, 244, 245
27, 179, 178, 239, 240, 186, 185, 246, 247, 181, 241, 242, 243, 188, 248, 249,
250, 191, 190, 251, 252
28, 186, 185, 246, 247, 193, 192, 253, 254, 188, 248, 249, 250, 195, 255, 256,
257, 198, 197, 258, 259
29, 193, 192, 253, 254, 200, 199, 260, 261, 195, 255, 256, 257, 202, 262, 263,
264, 205, 204, 265, 266
30, 200, 199, 260, 261, 207, 206, 267, 268, 202, 262, 263, 264, 209, 269, 270,
271, 212, 211, 272, 273
31, 207, 206, 267, 268, 214, 213, 274, 275, 209, 269, 270, 271, 216, 276, 277,
278, 219, 218, 279, 280
32, 214, 213, 274, 275, 221, 220, 281, 282, 216, 276, 277, 278, 223, 283, 284,
285, 226, 225, 286, 287
33, 2, 288, 289, 3, 6, 290, 291, 7, 292, 293, 294, 10, 295, 296, 297,
14, 18, 298, 299, 19
34, 6, 290, 291, 7, 22, 300, 301, 23, 295, 296, 297, 14, 302, 303, 304,
26, 30, 305, 306, 31
35, 22, 300, 301, 23, 34, 307, 308, 35, 302, 303, 304, 26, 309, 310, 311,
38, 42, 312, 313, 43
36, 34, 307, 308, 35, 46, 314, 315, 47, 309, 310, 311, 38, 316, 317, 318,
50, 54, 319, 320, 55
37, 46, 314, 315, 47, 58, 321, 322, 59, 316, 317, 318, 50, 323, 324, 325,
62, 66, 326, 327, 67
38, 58, 321, 322, 59, 70, 328, 329, 71, 323, 324, 325, 62, 330, 331, 332,
74, 78, 333, 334, 79
39, 70, 328, 329, 71, 82, 335, 336, 83, 330, 331, 332, 74, 337, 338, 339,
86, 90, 340, 341, 91
40, 82, 335, 336, 83, 94, 342, 343, 95, 337, 338, 339, 86, 344, 345, 346,
98, 102, 347, 348, 103
41, 3, 289, 349, 105, 7, 291, 350, 107, 294, 351, 352, 109, 297, 353, 354,
112, 19, 299, 355, 115
42, 7, 291, 350, 107, 23, 301, 356, 117, 297, 353, 354, 112, 304, 357, 358,
119, 31, 306, 359, 122
43, 23, 301, 356, 117, 35, 308, 360, 124, 304, 357, 358, 119, 311, 361, 362,
126, 43, 313, 363, 129
44, 35, 308, 360, 124, 47, 315, 364, 131, 311, 361, 362, 126, 318, 365, 366,
133, 55, 320, 367, 136
45, 47, 315, 364, 131, 59, 322, 368, 138, 318, 365, 366, 133, 325, 369, 370,
140, 67, 327, 371, 143
46, 59, 322, 368, 138, 71, 329, 372, 145, 325, 369, 370, 140, 332, 373, 374,
147, 79, 334, 375, 150
47, 71, 329, 372, 145, 83, 336, 376, 152, 332, 373, 374, 147, 339, 377, 378,
154, 91, 341, 379, 157
48, 83, 336, 376, 152, 95, 343, 380, 159, 339, 377, 378, 154, 346, 381, 382,
161, 103, 348, 383, 164
49, 105, 349, 384, 166, 107, 350, 385, 168, 352, 386, 387, 170, 354, 388, 389,
173, 115, 355, 390, 176
50, 107, 350, 385, 168, 117, 356, 391, 178, 354, 388, 389, 173, 358, 392, 393,
180, 122, 359, 394, 183
51, 117, 356, 391, 178, 124, 360, 395, 185, 358, 392, 393, 180, 362, 396, 397,
187, 129, 363, 398, 190
52, 124, 360, 395, 185, 131, 364, 399, 192, 362, 396, 397, 187, 366, 400, 401,
194, 136, 367, 402, 197
53, 131, 364, 399, 192, 138, 368, 403, 199, 366, 400, 401, 194, 370, 404, 405,
201, 143, 371, 406, 204
54, 138, 368, 403, 199, 145, 372, 407, 206, 370, 404, 405, 201, 374, 408, 409,
208, 150, 375, 410, 211
55, 145, 372, 407, 206, 152, 376, 411, 213, 374, 408, 409, 208, 378, 412, 413,
215, 157, 379, 414, 218
56, 152, 376, 411, 213, 159, 380, 415, 220, 378, 412, 413, 215, 382, 416, 417,
222, 164, 383, 418, 225
57, 166, 384, 419, 227, 168, 385, 420, 229, 387, 421, 422, 231, 389, 423, 424,
234, 176, 390, 425, 237
58, 168, 385, 420, 229, 178, 391, 426, 239, 389, 423, 424, 234, 393, 427, 428,
241, 183, 394, 429, 244
59, 178, 391, 426, 239, 185, 395, 430, 246, 393, 427, 428, 241, 397, 431, 432,
248, 190, 398, 433, 251
60, 185, 395, 430, 246, 192, 399, 434, 253, 397, 431, 432, 248, 401, 435, 436,
255, 197, 402, 437, 258
61, 192, 399, 434, 253, 199, 403, 438, 260, 401, 435, 436, 255, 405, 439, 440,
262, 204, 406, 441, 265
62, 199, 403, 438, 260, 206, 407, 442, 267, 405, 439, 440, 262, 409, 443, 444,
269, 211, 410, 445, 272
63, 206, 407, 442, 267, 213, 411, 446, 274, 409, 443, 444, 269, 413, 447, 448,
276, 218, 414, 449, 279
64, 213, 411, 446, 274, 220, 415, 450, 281, 413, 447, 448, 276, 417, 451, 452,
283, 225, 418, 453, 286
65, 288, 454, 455, 289, 290, 456, 457, 291, 458, 459, 460, 293, 461, 462, 463,
296, 298, 464, 465, 299
66, 290, 456, 457, 291, 300, 466, 467, 301, 461, 462, 463, 296, 468, 469, 470,
303, 305, 471, 472, 306
67, 300, 466, 467, 301, 307, 473, 474, 308, 468, 469, 470, 303, 475, 476, 477,
310, 312, 478, 479, 313
68, 307, 473, 474, 308, 314, 480, 481, 315, 475, 476, 477, 310, 482, 483, 484,
317, 319, 485, 486, 320
69, 314, 480, 481, 315, 321, 487, 488, 322, 482, 483, 484, 317, 489, 490, 491,
324, 326, 492, 493, 327
70, 321, 487, 488, 322, 328, 494, 495, 329, 489, 490, 491, 324, 496, 497, 498,
331, 333, 499, 500, 334
71, 328, 494, 495, 329, 335, 501, 502, 336, 496, 497, 498, 331, 503, 504, 505,
338, 340, 506, 507, 341
72, 335, 501, 502, 336, 342, 508, 509, 343, 503, 504, 505, 338, 510, 511, 512,
345, 347, 513, 514, 348
73, 289, 455, 515, 349, 291, 457, 516, 350, 460, 517, 518, 351, 463, 519, 520,
353, 299, 465, 521, 355
74, 291, 457, 516, 350, 301, 467, 522, 356, 463, 519, 520, 353, 470, 523, 524,
357, 306, 472, 525, 359
75, 301, 467, 522, 356, 308, 474, 526, 360, 470, 523, 524, 357, 477, 527, 528,
361, 313, 479, 529, 363
76, 308, 474, 526, 360, 315, 481, 530, 364, 477, 527, 528, 361, 484, 531, 532,
365, 320, 486, 533, 367
77, 315, 481, 530, 364, 322, 488, 534, 368, 484, 531, 532, 365, 491, 535, 536,
369, 327, 493, 537, 371
78, 322, 488, 534, 368, 329, 495, 538, 372, 491, 535, 536, 369, 498, 539, 540,
373, 334, 500, 541, 375
79, 329, 495, 538, 372, 336, 502, 542, 376, 498, 539, 540, 373, 505, 543, 544,
377, 341, 507, 545, 379
80, 336, 502, 542, 376, 343, 509, 546, 380, 505, 543, 544, 377, 512, 547, 548,
381, 348, 514, 549, 383
81, 349, 515, 550, 384, 350, 516, 551, 385, 518, 552, 553, 386, 520, 554, 555,
388, 355, 521, 556, 390
82, 350, 516, 551, 385, 356, 522, 557, 391, 520, 554, 555, 388, 524, 558, 559,
392, 359, 525, 560, 394
83, 356, 522, 557, 391, 360, 526, 561, 395, 524, 558, 559, 392, 528, 562, 563,
396, 363, 529, 564, 398
84, 360, 526, 561, 395, 364, 530, 565, 399, 528, 562, 563, 396, 532, 566, 567,
400, 367, 533, 568, 402
85, 364, 530, 565, 399, 368, 534, 569, 403, 532, 566, 567, 400, 536, 570, 571,
404, 371, 537, 572, 406
86, 368, 534, 569, 403, 372, 538, 573, 407, 536, 570, 571, 404, 540, 574, 575,
408, 375, 541, 576, 410
87, 372, 538, 573, 407, 376, 542, 577, 411, 540, 574, 575, 408, 544, 578, 579,
412, 379, 545, 580, 414
88, 376, 542, 577, 411, 380, 546, 581, 415, 544, 578, 579, 412, 548, 582, 583,
416, 383, 549, 584, 418
89, 384, 550, 585, 419, 385, 551, 586, 420, 553, 587, 588, 421, 555, 589, 590,
423, 390, 556, 591, 425
90, 385, 551, 586, 420, 391, 557, 592, 426, 555, 589, 590, 423, 559, 593, 594,
427, 394, 560, 595, 429
91, 391, 557, 592, 426, 395, 561, 596, 430, 559, 593, 594, 427, 563, 597, 598,
431, 398, 564, 599, 433
92, 395, 561, 596, 430, 399, 565, 600, 434, 563, 597, 598, 431, 567, 601, 602,
435, 402, 568, 603, 437
93, 399, 565, 600, 434, 403, 569, 604, 438, 567, 601, 602, 435, 571, 605, 606,
439, 406, 572, 607, 441
94, 403, 569, 604, 438, 407, 573, 608, 442, 571, 605, 606, 439, 575, 609, 610,
443, 410, 576, 611, 445
95, 407, 573, 608, 442, 411, 577, 612, 446, 575, 609, 610, 443, 579, 613, 614,
447, 414, 580, 615, 449
96, 411, 577, 612, 446, 415, 581, 616, 450, 579, 613, 614, 447, 583, 617, 618,
451, 418, 584, 619, 453
97, 454, 620, 621, 455, 456, 622, 623, 457, 624, 625, 626, 459, 627, 628, 629,
462, 464, 630, 631, 465
98, 456, 622, 623, 457, 466, 632, 633, 467, 627, 628, 629, 462, 634, 635, 636,
469, 471, 637, 638, 472
99, 466, 632, 633, 467, 473, 639, 640, 474, 634, 635, 636, 469, 641, 642, 643,
476, 478, 644, 645, 479
100, 473, 639, 640, 474, 480, 646, 647, 481, 641, 642, 643, 476, 648, 649, 650,
483, 485, 651, 652, 486
101, 480, 646, 647, 481, 487, 653, 654, 488, 648, 649, 650, 483, 655, 656, 657,
490, 492, 658, 659, 493
102, 487, 653, 654, 488, 494, 660, 661, 495, 655, 656, 657, 490, 662, 663, 664,
497, 499, 665, 666, 500
103, 494, 660, 661, 495, 501, 667, 668, 502, 662, 663, 664, 497, 669, 670, 671,
504, 506, 672, 673, 507
104, 501, 667, 668, 502, 508, 674, 675, 509, 669, 670, 671, 504, 676, 677, 678,
511, 513, 679, 680, 514
105, 455, 621, 681, 515, 457, 623, 682, 516, 626, 683, 684, 517, 629, 685, 686,
519, 465, 631, 687, 521
106, 457, 623, 682, 516, 467, 633, 688, 522, 629, 685, 686, 519, 636, 689, 690,
523, 472, 638, 691, 525
107, 467, 633, 688, 522, 474, 640, 692, 526, 636, 689, 690, 523, 643, 693, 694,
527, 479, 645, 695, 529
108, 474, 640, 692, 526, 481, 647, 696, 530, 643, 693, 694, 527, 650, 697, 698,
531, 486, 652, 699, 533
109, 481, 647, 696, 530, 488, 654, 700, 534, 650, 697, 698, 531, 657, 701, 702,
535, 493, 659, 703, 537
110, 488, 654, 700, 534, 495, 661, 704, 538, 657, 701, 702, 535, 664, 705, 706,
539, 500, 666, 707, 541
111, 495, 661, 704, 538, 502, 668, 708, 542, 664, 705, 706, 539, 671, 709, 710,
543, 507, 673, 711, 545
112, 502, 668, 708, 542, 509, 675, 712, 546, 671, 709, 710, 543, 678, 713, 714,
547, 514, 680, 715, 549
113, 515, 681, 716, 550, 516, 682, 717, 551, 684, 718, 719, 552, 686, 720, 721,
554, 521, 687, 722, 556
114, 516, 682, 717, 551, 522, 688, 723, 557, 686, 720, 721, 554, 690, 724, 725,
558, 525, 691, 726, 560
115, 522, 688, 723, 557, 526, 692, 727, 561, 690, 724, 725, 558, 694, 728, 729,
562, 529, 695, 730, 564
116, 526, 692, 727, 561, 530, 696, 731, 565, 694, 728, 729, 562, 698, 732, 733,
566, 533, 699, 734, 568
117, 530, 696, 731, 565, 534, 700, 735, 569, 698, 732, 733, 566, 702, 736, 737,
570, 537, 703, 738, 572
118, 534, 700, 735, 569, 538, 704, 739, 573, 702, 736, 737, 570, 706, 740, 741,
574, 541, 707, 742, 576
119, 538, 704, 739, 573, 542, 708, 743, 577, 706, 740, 741, 574, 710, 744, 745,
578, 545, 711, 746, 580
120, 542, 708, 743, 577, 546, 712, 747, 581, 710, 744, 745, 578, 714, 748, 749,
582, 549, 715, 750, 584
121, 550, 716, 751, 585, 551, 717, 752, 586, 719, 753, 754, 587, 721, 755, 756,
589, 556, 722, 757, 591
122, 551, 717, 752, 586, 557, 723, 758, 592, 721, 755, 756, 589, 725, 759, 760,
593, 560, 726, 761, 595
123, 557, 723, 758, 592, 561, 727, 762, 596, 725, 759, 760, 593, 729, 763, 764,
597, 564, 730, 765, 599
124, 561, 727, 762, 596, 565, 731, 766, 600, 729, 763, 764, 597, 733, 767, 768,
601, 568, 734, 769, 603
125, 565, 731, 766, 600, 569, 735, 770, 604, 733, 767, 768, 601, 737, 771, 772,
605, 572, 738, 773, 607
126, 569, 735, 770, 604, 573, 739, 774, 608, 737, 771, 772, 605, 741, 775, 776,
609, 576, 742, 777, 611
127, 573, 739, 774, 608, 577, 743, 778, 612, 741, 775, 776, 609, 745, 779, 780,
613, 580, 746, 781, 615
128, 577, 743, 778, 612, 581, 747, 782, 616, 745, 779, 780, 613, 749, 783, 784,
617, 584, 750, 785, 619
129, 620, 786, 787, 621, 622, 788, 789, 623, 790, 791, 792, 625, 793, 794, 795,
628, 630, 796, 797, 631
130, 622, 788, 789, 623, 632, 798, 799, 633, 793, 794, 795, 628, 800, 801, 802,
635, 637, 803, 804, 638
131, 632, 798, 799, 633, 639, 805, 806, 640, 800, 801, 802, 635, 807, 808, 809,
642, 644, 810, 811, 645
132, 639, 805, 806, 640, 646, 812, 813, 647, 807, 808, 809, 642, 814, 815, 816,
649, 651, 817, 818, 652
133, 646, 812, 813, 647, 653, 819, 820, 654, 814, 815, 816, 649, 821, 822, 823,
656, 658, 824, 825, 659
134, 653, 819, 820, 654, 660, 826, 827, 661, 821, 822, 823, 656, 828, 829, 830,
663, 665, 831, 832, 666
135, 660, 826, 827, 661, 667, 833, 834, 668, 828, 829, 830, 663, 835, 836, 837,
670, 672, 838, 839, 673
136, 667, 833, 834, 668, 674, 840, 841, 675, 835, 836, 837, 670, 842, 843, 844,
677, 679, 845, 846, 680
137, 621, 787, 847, 681, 623, 789, 848, 682, 792, 849, 850, 683, 795, 851, 852,
685, 631, 797, 853, 687
138, 623, 789, 848, 682, 633, 799, 854, 688, 795, 851, 852, 685, 802, 855, 856,
689, 638, 804, 857, 691
139, 633, 799, 854, 688, 640, 806, 858, 692, 802, 855, 856, 689, 809, 859, 860,
693, 645, 811, 861, 695
140, 640, 806, 858, 692, 647, 813, 862, 696, 809, 859, 860, 693, 816, 863, 864,
697, 652, 818, 865, 699
141, 647, 813, 862, 696, 654, 820, 866, 700, 816, 863, 864, 697, 823, 867, 868,
701, 659, 825, 869, 703
142, 654, 820, 866, 700, 661, 827, 870, 704, 823, 867, 868, 701, 830, 871, 872,
705, 666, 832, 873, 707
143, 661, 827, 870, 704, 668, 834, 874, 708, 830, 871, 872, 705, 837, 875, 876,
709, 673, 839, 877, 711
144, 668, 834, 874, 708, 675, 841, 878, 712, 837, 875, 876, 709, 844, 879, 880,
713, 680, 846, 881, 715
145, 681, 847, 882, 716, 682, 848, 883, 717, 850, 884, 885, 718, 852, 886, 887,
720, 687, 853, 888, 722
146, 682, 848, 883, 717, 688, 854, 889, 723, 852, 886, 887, 720, 856, 890, 891,
724, 691, 857, 892, 726
147, 688, 854, 889, 723, 692, 858, 893, 727, 856, 890, 891, 724, 860, 894, 895,
728, 695, 861, 896, 730
148, 692, 858, 893, 727, 696, 862, 897, 731, 860, 894, 895, 728, 864, 898, 899,
732, 699, 865, 900, 734
149, 696, 862, 897, 731, 700, 866, 901, 735, 864, 898, 899, 732, 868, 902, 903,
736, 703, 869, 904, 738
150, 700, 866, 901, 735, 704, 870, 905, 739, 868, 902, 903, 736, 872, 906, 907,
740, 707, 873, 908, 742
151, 704, 870, 905, 739, 708, 874, 909, 743, 872, 906, 907, 740, 876, 910, 911,
744, 711, 877, 912, 746
152, 708, 874, 909, 743, 712, 878, 913, 747, 876, 910, 911, 744, 880, 914, 915,
748, 715, 881, 916, 750
153, 716, 882, 917, 751, 717, 883, 918, 752, 885, 919, 920, 753, 887, 921, 922,
755, 722, 888, 923, 757
154, 717, 883, 918, 752, 723, 889, 924, 758, 887, 921, 922, 755, 891, 925, 926,
759, 726, 892, 927, 761
155, 723, 889, 924, 758, 727, 893, 928, 762, 891, 925, 926, 759, 895, 929, 930,
763, 730, 896, 931, 765
156, 727, 893, 928, 762, 731, 897, 932, 766, 895, 929, 930, 763, 899, 933, 934,
767, 734, 900, 935, 769
157, 731, 897, 932, 766, 735, 901, 936, 770, 899, 933, 934, 767, 903, 937, 938,
771, 738, 904, 939, 773
158, 735, 901, 936, 770, 739, 905, 940, 774, 903, 937, 938, 771, 907, 941, 942,
775, 742, 908, 943, 777
159, 739, 905, 940, 774, 743, 909, 944, 778, 907, 941, 942, 775, 911, 945, 946,
779, 746, 912, 947, 781
160, 743, 909, 944, 778, 747, 913, 948, 782, 911, 945, 946, 779, 915, 949, 950,
783, 750, 916, 951, 785
161, 786, 952, 953, 787, 788, 954, 955, 789, 956, 957, 958, 791, 959, 960, 961,
794, 796, 962, 963, 797
162, 788, 954, 955, 789, 798, 964, 965, 799, 959, 960, 961, 794, 966, 967, 968,
801, 803, 969, 970, 804
163, 798, 964, 965, 799, 805, 971, 972, 806, 966, 967, 968, 801, 973, 974, 975,
808, 810, 976, 977, 811
164, 805, 971, 972, 806, 812, 978, 979, 813, 973, 974, 975, 808, 980, 981, 982,
815, 817, 983, 984, 818
165, 812, 978, 979, 813, 819, 985, 986, 820, 980, 981, 982, 815, 987, 988, 989,
822, 824, 990, 991, 825
166, 819, 985, 986, 820, 826, 992, 993, 827, 987, 988, 989, 822, 994, 995, 996,
829, 831, 997, 998, 832
167, 826, 992, 993, 827, 833, 999, 1000, 834, 994, 995, 996, 829, 1001, 1002, 1003,
836, 838, 1004, 1005, 839
168, 833, 999, 1000, 834, 840, 1006, 1007, 841, 1001, 1002, 1003, 836, 1008, 1009, 1010,
843, 845, 1011, 1012, 846
169, 787, 953, 1013, 847, 789, 955, 1014, 848, 958, 1015, 1016, 849, 961, 1017, 1018,
851, 797, 963, 1019, 853
170, 789, 955, 1014, 848, 799, 965, 1020, 854, 961, 1017, 1018, 851, 968, 1021, 1022,
855, 804, 970, 1023, 857
171, 799, 965, 1020, 854, 806, 972, 1024, 858, 968, 1021, 1022, 855, 975, 1025, 1026,
859, 811, 977, 1027, 861
172, 806, 972, 1024, 858, 813, 979, 1028, 862, 975, 1025, 1026, 859, 982, 1029, 1030,
863, 818, 984, 1031, 865
173, 813, 979, 1028, 862, 820, 986, 1032, 866, 982, 1029, 1030, 863, 989, 1033, 1034,
867, 825, 991, 1035, 869
174, 820, 986, 1032, 866, 827, 993, 1036, 870, 989, 1033, 1034, 867, 996, 1037, 1038,
871, 832, 998, 1039, 873
175, 827, 993, 1036, 870, 834, 1000, 1040, 874, 996, 1037, 1038, 871, 1003, 1041, 1042,
875, 839, 1005, 1043, 877
176, 834, 1000, 1040, 874, 841, 1007, 1044, 878, 1003, 1041, 1042, 875, 1010, 1045, 1046,
879, 846, 1012, 1047, 881
177, 847, 1013, 1048, 882, 848, 1014, 1049, 883, 1016, 1050, 1051, 884, 1018, 1052, 1053,
886, 853, 1019, 1054, 888
178, 848, 1014, 1049, 883, 854, 1020, 1055, 889, 1018, 1052, 1053, 886, 1022, 1056, 1057,
890, 857, 1023, 1058, 892
179, 854, 1020, 1055, 889, 858, 1024, 1059, 893, 1022, 1056, 1057, 890, 1026, 1060, 1061,
894, 861, 1027, 1062, 896
180, 858, 1024, 1059, 893, 862, 1028, 1063, 897, 1026, 1060, 1061, 894, 1030, 1064, 1065,
898, 865, 1031, 1066, 900
181, 862, 1028, 1063, 897, 866, 1032, 1067, 901, 1030, 1064, 1065, 898, 1034, 1068, 1069,
902, 869, 1035, 1070, 904
182, 866, 1032, 1067, 901, 870, 1036, 1071, 905, 1034, 1068, 1069, 902, 1038, 1072, 1073,
906, 873, 1039, 1074, 908
183, 870, 1036, 1071, 905, 874, 1040, 1075, 909, 1038, 1072, 1073, 906, 1042, 1076, 1077,
910, 877, 1043, 1078, 912
184, 874, 1040, 1075, 909, 878, 1044, 1079, 913, 1042, 1076, 1077, 910, 1046, 1080, 1081,
914, 881, 1047, 1082, 916
185, 882, 1048, 1083, 917, 883, 1049, 1084, 918, 1051, 1085, 1086, 919, 1053, 1087, 1088,
921, 888, 1054, 1089, 923
186, 883, 1049, 1084, 918, 889, 1055, 1090, 924, 1053, 1087, 1088, 921, 1057, 1091, 1092,
925, 892, 1058, 1093, 927
187, 889, 1055, 1090, 924, 893, 1059, 1094, 928, 1057, 1091, 1092, 925, 1061, 1095, 1096,
929, 896, 1062, 1097, 931
188, 893, 1059, 1094, 928, 897, 1063, 1098, 932, 1061, 1095, 1096, 929, 1065, 1099, 1100,
933, 900, 1066, 1101, 935
189, 897, 1063, 1098, 932, 901, 1067, 1102, 936, 1065, 1099, 1100, 933, 1069, 1103, 1104,
937, 904, 1070, 1105, 939
190, 901, 1067, 1102, 936, 905, 1071, 1106, 940, 1069, 1103, 1104, 937, 1073, 1107, 1108,
941, 908, 1074, 1109, 943
191, 905, 1071, 1106, 940, 909, 1075, 1110, 944, 1073, 1107, 1108, 941, 1077, 1111, 1112,
945, 912, 1078, 1113, 947
192, 909, 1075, 1110, 944, 913, 1079, 1114, 948, 1077, 1111, 1112, 945, 1081, 1115, 1116,
949, 916, 1082, 1117, 951
193, 952, 1118, 1119, 953, 954, 1120, 1121, 955, 1122, 1123, 1124, 957, 1125, 1126, 1127,
960, 962, 1128, 1129, 963
194, 954, 1120, 1121, 955, 964, 1130, 1131, 965, 1125, 1126, 1127, 960, 1132, 1133, 1134,
967, 969, 1135, 1136, 970
195, 964, 1130, 1131, 965, 971, 1137, 1138, 972, 1132, 1133, 1134, 967, 1139, 1140, 1141,
974, 976, 1142, 1143, 977
196, 971, 1137, 1138, 972, 978, 1144, 1145, 979, 1139, 1140, 1141, 974, 1146, 1147, 1148,
981, 983, 1149, 1150, 984
197, 978, 1144, 1145, 979, 985, 1151, 1152, 986, 1146, 1147, 1148, 981, 1153, 1154, 1155,
988, 990, 1156, 1157, 991
198, 985, 1151, 1152, 986, 992, 1158, 1159, 993, 1153, 1154, 1155, 988, 1160, 1161, 1162,
995, 997, 1163, 1164, 998
199, 992, 1158, 1159, 993, 999, 1165, 1166, 1000, 1160, 1161, 1162, 995, 1167, 1168, 1169,
1002, 1004, 1170, 1171, 1005
200, 999, 1165, 1166, 1000, 1006, 1172, 1173, 1007, 1167, 1168, 1169, 1002, 1174, 1175, 1176,
1009, 1011, 1177, 1178, 1012
201, 953, 1119, 1179, 1013, 955, 1121, 1180, 1014, 1124, 1181, 1182, 1015, 1127, 1183, 1184,
1017, 963, 1129, 1185, 1019
202, 955, 1121, 1180, 1014, 965, 1131, 1186, 1020, 1127, 1183, 1184, 1017, 1134, 1187, 1188,
1021, 970, 1136, 1189, 1023
203, 965, 1131, 1186, 1020, 972, 1138, 1190, 1024, 1134, 1187, 1188, 1021, 1141, 1191, 1192,
1025, 977, 1143, 1193, 1027
204, 972, 1138, 1190, 1024, 979, 1145, 1194, 1028, 1141, 1191, 1192, 1025, 1148, 1195, 1196,
1029, 984, 1150, 1197, 1031
205, 979, 1145, 1194, 1028, 986, 1152, 1198, 1032, 1148, 1195, 1196, 1029, 1155, 1199, 1200,
1033, 991, 1157, 1201, 1035
206, 986, 1152, 1198, 1032, 993, 1159, 1202, 1036, 1155, 1199, 1200, 1033, 1162, 1203, 1204,
1037, 998, 1164, 1205, 1039
207, 993, 1159, 1202, 1036, 1000, 1166, 1206, 1040, 1162, 1203, 1204, 1037, 1169, 1207, 1208,
1041, 1005, 1171, 1209, 1043
208, 1000, 1166, 1206, 1040, 1007, 1173, 1210, 1044, 1169, 1207, 1208, 1041, 1176, 1211, 1212,
1045, 1012, 1178, 1213, 1047
209, 1013, 1179, 1214, 1048, 1014, 1180, 1215, 1049, 1182, 1216, 1217, 1050, 1184, 1218, 1219,
1052, 1019, 1185, 1220, 1054
210, 1014, 1180, 1215, 1049, 1020, 1186, 1221, 1055, 1184, 1218, 1219, 1052, 1188, 1222, 1223,
1056, 1023, 1189, 1224, 1058
211, 1020, 1186, 1221, 1055, 1024, 1190, 1225, 1059, 1188, 1222, 1223, 1056, 1192, 1226, 1227,
1060, 1027, 1193, 1228, 1062
212, 1024, 1190, 1225, 1059, 1028, 1194, 1229, 1063, 1192, 1226, 1227, 1060, 1196, 1230, 1231,
1064, 1031, 1197, 1232, 1066
213, 1028, 1194, 1229, 1063, 1032, 1198, 1233, 1067, 1196, 1230, 1231, 1064, 1200, 1234, 1235,
1068, 1035, 1201, 1236, 1070
214, 1032, 1198, 1233, 1067, 1036, 1202, 1237, 1071, 1200, 1234, 1235, 1068, 1204, 1238, 1239,
1072, 1039, 1205, 1240, 1074
215, 1036, 1202, 1237, 1071, 1040, 1206, 1241, 1075, 1204, 1238, 1239, 1072, 1208, 1242, 1243,
1076, 1043, 1209, 1244, 1078
216, 1040, 1206, 1241, 1075, 1044, 1210, 1245, 1079, 1208, 1242, 1243, 1076, 1212, 1246, 1247,
1080, 1047, 1213, 1248, 1082
217, 1048, 1214, 1249, 1083, 1049, 1215, 1250, 1084, 1217, 1251, 1252, 1085, 1219, 1253, 1254,
1087, 1054, 1220, 1255, 1089
218, 1049, 1215, 1250, 1084, 1055, 1221, 1256, 1090, 1219, 1253, 1254, 1087, 1223, 1257, 1258,
1091, 1058, 1224, 1259, 1093
219, 1055, 1221, 1256, 1090, 1059, 1225, 1260, 1094, 1223, 1257, 1258, 1091, 1227, 1261, 1262,
1095, 1062, 1228, 1263, 1097
220, 1059, 1225, 1260, 1094, 1063, 1229, 1264, 1098, 1227, 1261, 1262, 1095, 1231, 1265, 1266,
1099, 1066, 1232, 1267, 1101
221, 1063, 1229, 1264, 1098, 1067, 1233, 1268, 1102, 1231, 1265, 1266, 1099, 1235, 1269, 1270,
1103, 1070, 1236, 1271, 1105
222, 1067, 1233, 1268, 1102, 1071, 1237, 1272, 1106, 1235, 1269, 1270, 1103, 1239, 1273, 1274,
1107, 1074, 1240, 1275, 1109
223, 1071, 1237, 1272, 1106, 1075, 1241, 1276, 1110, 1239, 1273, 1274, 1107, 1243, 1277, 1278,
1111, 1078, 1244, 1279, 1113
224, 1075, 1241, 1276, 1110, 1079, 1245, 1280, 1114, 1243, 1277, 1278, 1111, 1247, 1281, 1282,
1115, 1082, 1248, 1283, 1117
225, 1118, 1284, 1285, 1119, 1120, 1286, 1287, 1121, 1288, 1289, 1290, 1123, 1291, 1292, 1293,
1126, 1128, 1294, 1295, 1129
226, 1120, 1286, 1287, 1121, 1130, 1296, 1297, 1131, 1291, 1292, 1293, 1126, 1298, 1299, 1300,
1133, 1135, 1301, 1302, 1136
227, 1130, 1296, 1297, 1131, 1137, 1303, 1304, 1138, 1298, 1299, 1300, 1133, 1305, 1306, 1307,
1140, 1142, 1308, 1309, 1143
228, 1137, 1303, 1304, 1138, 1144, 1310, 1311, 1145, 1305, 1306, 1307, 1140, 1312, 1313, 1314,
1147, 1149, 1315, 1316, 1150
229, 1144, 1310, 1311, 1145, 1151, 1317, 1318, 1152, 1312, 1313, 1314, 1147, 1319, 1320, 1321,
1154, 1156, 1322, 1323, 1157
230, 1151, 1317, 1318, 1152, 1158, 1324, 1325, 1159, 1319, 1320, 1321, 1154, 1326, 1327, 1328,
1161, 1163, 1329, 1330, 1164
231, 1158, 1324, 1325, 1159, 1165, 1331, 1332, 1166, 1326, 1327, 1328, 1161, 1333, 1334, 1335,
1168, 1170, 1336, 1337, 1171
232, 1165, 1331, 1332, 1166, 1172, 1338, 1339, 1173, 1333, 1334, 1335, 1168, 1340, 1341, 1342,
1175, 1177, 1343, 1344, 1178
233, 1119, 1285, 1345, 1179, 1121, 1287, 1346, 1180, 1290, 1347, 1348, 1181, 1293, 1349, 1350,
1183, 1129, 1295, 1351, 1185
234, 1121, 1287, 1346, 1180, 1131, 1297, 1352, 1186, 1293, 1349, 1350, 1183, 1300, 1353, 1354,
1187, 1136, 1302, 1355, 1189
235, 1131, 1297, 1352, 1186, 1138, 1304, 1356, 1190, 1300, 1353, 1354, 1187, 1307, 1357, 1358,
1191, 1143, 1309, 1359, 1193
236, 1138, 1304, 1356, 1190, 1145, 1311, 1360, 1194, 1307, 1357, 1358, 1191, 1314, 1361, 1362,
1195, 1150, 1316, 1363, 1197
237, 1145, 1311, 1360, 1194, 1152, 1318, 1364, 1198, 1314, 1361, 1362, 1195, 1321, 1365, 1366,
1199, 1157, 1323, 1367, 1201
238, 1152, 1318, 1364, 1198, 1159, 1325, 1368, 1202, 1321, 1365, 1366, 1199, 1328, 1369, 1370,
1203, 1164, 1330, 1371, 1205
239, 1159, 1325, 1368, 1202, 1166, 1332, 1372, 1206, 1328, 1369, 1370, 1203, 1335, 1373, 1374,
1207, 1171, 1337, 1375, 1209
240, 1166, 1332, 1372, 1206, 1173, 1339, 1376, 1210, 1335, 1373, 1374, 1207, 1342, 1377, 1378,
1211, 1178, 1344, 1379, 1213
241, 1179, 1345, 1380, 1214, 1180, 1346, 1381, 1215, 1348, 1382, 1383, 1216, 1350, 1384, 1385,
1218, 1185, 1351, 1386, 1220
242, 1180, 1346, 1381, 1215, 1186, 1352, 1387, 1221, 1350, 1384, 1385, 1218, 1354, 1388, 1389,
1222, 1189, 1355, 1390, 1224
243, 1186, 1352, 1387, 1221, 1190, 1356, 1391, 1225, 1354, 1388, 1389, 1222, 1358, 1392, 1393,
1226, 1193, 1359, 1394, 1228
244, 1190, 1356, 1391, 1225, 1194, 1360, 1395, 1229, 1358, 1392, 1393, 1226, 1362, 1396, 1397,
1230, 1197, 1363, 1398, 1232
245, 1194, 1360, 1395, 1229, 1198, 1364, 1399, 1233, 1362, 1396, 1397, 1230, 1366, 1400, 1401,
1234, 1201, 1367, 1402, 1236
246, 1198, 1364, 1399, 1233, 1202, 1368, 1403, 1237, 1366, 1400, 1401, 1234, 1370, 1404, 1405,
1238, 1205, 1371, 1406, 1240
247, 1202, 1368, 1403, 1237, 1206, 1372, 1407, 1241, 1370, 1404, 1405, 1238, 1374, 1408, 1409,
1242, 1209, 1375, 1410, 1244
248, 1206, 1372, 1407, 1241, 1210, 1376, 1411, 1245, 1374, 1408, 1409, 1242, 1378, 1412, 1413,
1246, 1213, 1379, 1414, 1248
249, 1214, 1380, 1415, 1249, 1215, 1381, 1416, 1250, 1383, 1417, 1418, 1251, 1385, 1419, 1420,
1253, 1220, 1386, 1421, 1255
250, 1215, 1381, 1416, 1250, 1221, 1387, 1422, 1256, 1385, 1419, 1420, 1253, 1389, 1423, 1424,
1257, 1224, 1390, 1425, 1259
251, 1221, 1387, 1422, 1256, 1225, 1391, 1426, 1260, 1389, 1423, 1424, 1257, 1393, 1427, 1428,
1261, 1228, 1394, 1429, 1263
252, 1225, 1391, 1426, 1260, 1229, 1395, 1430, 1264, 1393, 1427, 1428, 1261, 1397, 1431, 1432,
1265, 1232, 1398, 1433, 1267
253, 1229, 1395, 1430, 1264, 1233, 1399, 1434, 1268, 1397, 1431, 1432, 1265, 1401, 1435, 1436,
1269, 1236, 1402, 1437, 1271
254, 1233, 1399, 1434, 1268, 1237, 1403, 1438, 1272, 1401, 1435, 1436, 1269, 1405, 1439, 1440,
1273, 1240, 1406, 1441, 1275
255, 1237, 1403, 1438, 1272, 1241, 1407, 1442, 1276, 1405, 1439, 1440, 1273, 1409, 1443, 1444,
1277, 1244, 1410, 1445, 1279
256, 1241, 1407, 1442, 1276, 1245, 1411, 1446, 1280, 1409, 1443, 1444, 1277, 1413, 1447, 1448,
1281, 1248, 1414, 1449, 1283
257, 1284, 1450, 1451, 1285, 1286, 1452, 1453, 1287, 1454, 1455, 1456, 1289, 1457, 1458, 1459,
1292, 1294, 1460, 1461, 1295
258, 1286, 1452, 1453, 1287, 1296, 1462, 1463, 1297, 1457, 1458, 1459, 1292, 1464, 1465, 1466,
1299, 1301, 1467, 1468, 1302
259, 1296, 1462, 1463, 1297, 1303, 1469, 1470, 1304, 1464, 1465, 1466, 1299, 1471, 1472, 1473,
1306, 1308, 1474, 1475, 1309
260, 1303, 1469, 1470, 1304, 1310, 1476, 1477, 1311, 1471, 1472, 1473, 1306, 1478, 1479, 1480,
1313, 1315, 1481, 1482, 1316
261, 1310, 1476, 1477, 1311, 1317, 1483, 1484, 1318, 1478, 1479, 1480, 1313, 1485, 1486, 1487,
1320, 1322, 1488, 1489, 1323
262, 1317, 1483, 1484, 1318, 1324, 1490, 1491, 1325, 1485, 1486, 1487, 1320, 1492, 1493, 1494,
1327, 1329, 1495, 1496, 1330
263, 1324, 1490, 1491, 1325, 1331, 1497, 1498, 1332, 1492, 1493, 1494, 1327, 1499, 1500, 1501,
1334, 1336, 1502, 1503, 1337
264, 1331, 1497, 1498, 1332, 1338, 1504, 1505, 1339, 1499, 1500, 1501, 1334, 1506, 1507, 1508,
1341, 1343, 1509, 1510, 1344
265, 1285, 1451, 1511, 1345, 1287, 1453, 1512, 1346, 1456, 1513, 1514, 1347, 1459, 1515, 1516,
1349, 1295, 1461, 1517, 1351
266, 1287, 1453, 1512, 1346, 1297, 1463, 1518, 1352, 1459, 1515, 1516, 1349, 1466, 1519, 1520,
1353, 1302, 1468, 1521, 1355
267, 1297, 1463, 1518, 1352, 1304, 1470, 1522, 1356, 1466, 1519, 1520, 1353, 1473, 1523, 1524,
1357, 1309, 1475, 1525, 1359
268, 1304, 1470, 1522, 1356, 1311, 1477, 1526, 1360, 1473, 1523, 1524, 1357, 1480, 1527, 1528,
1361, 1316, 1482, 1529, 1363
269, 1311, 1477, 1526, 1360, 1318, 1484, 1530, 1364, 1480, 1527, 1528, 1361, 1487, 1531, 1532,
1365, 1323, 1489, 1533, 1367
270, 1318, 1484, 1530, 1364, 1325, 1491, 1534, 1368, 1487, 1531, 1532, 1365, 1494, 1535, 1536,
1369, 1330, 1496, 1537, 1371
271, 1325, 1491, 1534, 1368, 1332, 1498, 1538, 1372, 1494, 1535, 1536, 1369, 1501, 1539, 1540,
1373, 1337, 1503, 1541, 1375
272, 1332, 1498, 1538, 1372, 1339, 1505, 1542, 1376, 1501, 1539, 1540, 1373, 1508, 1543, 1544,
1377, 1344, 1510, 1545, 1379
273, 1345, 1511, 1546, 1380, 1346, 1512, 1547, 1381, 1514, 1548, 1549, 1382, 1516, 1550, 1551,
1384, 1351, 1517, 1552, 1386
274, 1346, 1512, 1547, 1381, 1352, 1518, 1553, 1387, 1516, 1550, 1551, 1384, 1520, 1554, 1555,
1388, 1355, 1521, 1556, 1390
275, 1352, 1518, 1553, 1387, 1356, 1522, 1557, 1391, 1520, 1554, 1555, 1388, 1524, 1558, 1559,
1392, 1359, 1525, 1560, 1394
276, 1356, 1522, 1557, 1391, 1360, 1526, 1561, 1395, 1524, 1558, 1559, 1392, 1528, 1562, 1563,
1396, 1363, 1529, 1564, 1398
277, 1360, 1526, 1561, 1395, 1364, 1530, 1565, 1399, 1528, 1562, 1563, 1396, 1532, 1566, 1567,
1400, 1367, 1533, 1568, 1402
278, 1364, 1530, 1565, 1399, 1368, 1534, 1569, 1403, 1532, 1566, 1567, 1400, 1536, 1570, 1571,
1404, 1371, 1537, 1572, 1406
279, 1368, 1534, 1569, 1403, 1372, 1538, 1573, 1407, 1536, 1570, 1571, 1404, 1540, 1574, 1575,
1408, 1375, 1541, 1576, 1410
280, 1372, 1538, 1573, 1407, 1376, 1542, 1577, 1411, 1540, 1574, 1575, 1408, 1544, 1578, 1579,
1412, 1379, 1545, 1580, 1414
281, 1380, 1546, 1581, 1415, 1381, 1547, 1582, 1416, 1549, 1583, 1584, 1417, 1551, 1585, 1586,
1419, 1386, 1552, 1587, 1421
282, 1381, 1547, 1582, 1416, 1387, 1553, 1588, 1422, 1551, 1585, 1586, 1419, 1555, 1589, 1590,
1423, 1390, 1556, 1591, 1425
283, 1387, 1553, 1588, 1422, 1391, 1557, 1592, 1426, 1555, 1589, 1590, 1423, 1559, 1593, 1594,
1427, 1394, 1560, 1595, 1429
284, 1391, 1557, 1592, 1426, 1395, 1561, 1596, 1430, 1559, 1593, 1594, 1427, 1563, 1597, 1598,
1431, 1398, 1564, 1599, 1433
285, 1395, 1561, 1596, 1430, 1399, 1565, 1600, 1434, 1563, 1597, 1598, 1431, 1567, 1601, 1602,
1435, 1402, 1568, 1603, 1437
286, 1399, 1565, 1600, 1434, 1403, 1569, 1604, 1438, 1567, 1601, 1602, 1435, 1571, 1605, 1606,
1439, 1406, 1572, 1607, 1441
287, 1403, 1569, 1604, 1438, 1407, 1573, 1608, 1442, 1571, 1605, 1606, 1439, 1575, 1609, 1610,
1443, 1410, 1576, 1611, 1445
288, 1407, 1573, 1608, 1442, 1411, 1577, 1612, 1446, 1575, 1609, 1610, 1443, 1579, 1613, 1614,
1447, 1414, 1580, 1615, 1449
289, 1450, 1616, 1617, 1451, 1452, 1618, 1619, 1453, 1620, 1621, 1622, 1455, 1623, 1624, 1625,
1458, 1460, 1626, 1627, 1461
290, 1452, 1618, 1619, 1453, 1462, 1628, 1629, 1463, 1623, 1624, 1625, 1458, 1630, 1631, 1632,
1465, 1467, 1633, 1634, 1468
291, 1462, 1628, 1629, 1463, 1469, 1635, 1636, 1470, 1630, 1631, 1632, 1465, 1637, 1638, 1639,
1472, 1474, 1640, 1641, 1475
292, 1469, 1635, 1636, 1470, 1476, 1642, 1643, 1477, 1637, 1638, 1639, 1472, 1644, 1645, 1646,
1479, 1481, 1647, 1648, 1482
293, 1476, 1642, 1643, 1477, 1483, 1649, 1650, 1484, 1644, 1645, 1646, 1479, 1651, 1652, 1653,
1486, 1488, 1654, 1655, 1489
294, 1483, 1649, 1650, 1484, 1490, 1656, 1657, 1491, 1651, 1652, 1653, 1486, 1658, 1659, 1660,
1493, 1495, 1661, 1662, 1496
295, 1490, 1656, 1657, 1491, 1497, 1663, 1664, 1498, 1658, 1659, 1660, 1493, 1665, 1666, 1667,
1500, 1502, 1668, 1669, 1503
296, 1497, 1663, 1664, 1498, 1504, 1670, 1671, 1505, 1665, 1666, 1667, 1500, 1672, 1673, 1674,
1507, 1509, 1675, 1676, 1510
297, 1451, 1617, 1677, 1511, 1453, 1619, 1678, 1512, 1622, 1679, 1680, 1513, 1625, 1681, 1682,
1515, 1461, 1627, 1683, 1517
298, 1453, 1619, 1678, 1512, 1463, 1629, 1684, 1518, 1625, 1681, 1682, 1515, 1632, 1685, 1686,
1519, 1468, 1634, 1687, 1521
299, 1463, 1629, 1684, 1518, 1470, 1636, 1688, 1522, 1632, 1685, 1686, 1519, 1639, 1689, 1690,
1523, 1475, 1641, 1691, 1525
300, 1470, 1636, 1688, 1522, 1477, 1643, 1692, 1526, 1639, 1689, 1690, 1523, 1646, 1693, 1694,
1527, 1482, 1648, 1695, 1529
301, 1477, 1643, 1692, 1526, 1484, 1650, 1696, 1530, 1646, 1693, 1694, 1527, 1653, 1697, 1698,
1531, 1489, 1655, 1699, 1533
302, 1484, 1650, 1696, 1530, 1491, 1657, 1700, 1534, 1653, 1697, 1698, 1531, 1660, 1701, 1702,
1535, 1496, 1662, 1703, 1537
303, 1491, 1657, 1700, 1534, 1498, 1664, 1704, 1538, 1660, 1701, 1702, 1535, 1667, 1705, 1706,
1539, 1503, 1669, 1707, 1541
304, 1498, 1664, 1704, 1538, 1505, 1671, 1708, 1542, 1667, 1705, 1706, 1539, 1674, 1709, 1710,
1543, 1510, 1676, 1711, 1545
305, 1511, 1677, 1712, 1546, 1512, 1678, 1713, 1547, 1680, 1714, 1715, 1548, 1682, 1716, 1717,
1550, 1517, 1683, 1718, 1552
306, 1512, 1678, 1713, 1547, 1518, 1684, 1719, 1553, 1682, 1716, 1717, 1550, 1686, 1720, 1721,
1554, 1521, 1687, 1722, 1556
307, 1518, 1684, 1719, 1553, 1522, 1688, 1723, 1557, 1686, 1720, 1721, 1554, 1690, 1724, 1725,
1558, 1525, 1691, 1726, 1560
308, 1522, 1688, 1723, 1557, 1526, 1692, 1727, 1561, 1690, 1724, 1725, 1558, 1694, 1728, 1729,
1562, 1529, 1695, 1730, 1564
309, 1526, 1692, 1727, 1561, 1530, 1696, 1731, 1565, 1694, 1728, 1729, 1562, 1698, 1732, 1733,
1566, 1533, 1699, 1734, 1568
310, 1530, 1696, 1731, 1565, 1534, 1700, 1735, 1569, 1698, 1732, 1733, 1566, 1702, 1736, 1737,
1570, 1537, 1703, 1738, 1572
311, 1534, 1700, 1735, 1569, 1538, 1704, 1739, 1573, 1702, 1736, 1737, 1570, 1706, 1740, 1741,
1574, 1541, 1707, 1742, 1576
312, 1538, 1704, 1739, 1573, 1542, 1708, 1743, 1577, 1706, 1740, 1741, 1574, 1710, 1744, 1745,
1578, 1545, 1711, 1746, 1580
313, 1546, 1712, 1747, 1581, 1547, 1713, 1748, 1582, 1715, 1749, 1750, 1583, 1717, 1751, 1752,
1585, 1552, 1718, 1753, 1587
314, 1547, 1713, 1748, 1582, 1553, 1719, 1754, 1588, 1717, 1751, 1752, 1585, 1721, 1755, 1756,
1589, 1556, 1722, 1757, 1591
315, 1553, 1719, 1754, 1588, 1557, 1723, 1758, 1592, 1721, 1755, 1756, 1589, 1725, 1759, 1760,
1593, 1560, 1726, 1761, 1595
316, 1557, 1723, 1758, 1592, 1561, 1727, 1762, 1596, 1725, 1759, 1760, 1593, 1729, 1763, 1764,
1597, 1564, 1730, 1765, 1599
317, 1561, 1727, 1762, 1596, 1565, 1731, 1766, 1600, 1729, 1763, 1764, 1597, 1733, 1767, 1768,
1601, 1568, 1734, 1769, 1603
318, 1565, 1731, 1766, 1600, 1569, 1735, 1770, 1604, 1733, 1767, 1768, 1601, 1737, 1771, 1772,
1605, 1572, 1738, 1773, 1607
319, 1569, 1735, 1770, 1604, 1573, 1739, 1774, 1608, 1737, 1771, 1772, 1605, 1741, 1775, 1776,
1609, 1576, 1742, 1777, 1611
320, 1573, 1739, 1774, 1608, 1577, 1743, 1778, 1612, 1741, 1775, 1776, 1609, 1745, 1779, 1780,
1613, 1580, 1746, 1781, 1615
321, 1616, 1782, 1783, 1617, 1618, 1784, 1785, 1619, 1786, 1787, 1788, 1621, 1789, 1790, 1791,
1624, 1626, 1792, 1793, 1627
322, 1618, 1784, 1785, 1619, 1628, 1794, 1795, 1629, 1789, 1790, 1791, 1624, 1796, 1797, 1798,
1631, 1633, 1799, 1800, 1634
323, 1628, 1794, 1795, 1629, 1635, 1801, 1802, 1636, 1796, 1797, 1798, 1631, 1803, 1804, 1805,
1638, 1640, 1806, 1807, 1641
324, 1635, 1801, 1802, 1636, 1642, 1808, 1809, 1643, 1803, 1804, 1805, 1638, 1810, 1811, 1812,
1645, 1647, 1813, 1814, 1648
325, 1642, 1808, 1809, 1643, 1649, 1815, 1816, 1650, 1810, 1811, 1812, 1645, 1817, 1818, 1819,
1652, 1654, 1820, 1821, 1655
326, 1649, 1815, 1816, 1650, 1656, 1822, 1823, 1657, 1817, 1818, 1819, 1652, 1824, 1825, 1826,
1659, 1661, 1827, 1828, 1662
327, 1656, 1822, 1823, 1657, 1663, 1829, 1830, 1664, 1824, 1825, 1826, 1659, 1831, 1832, 1833,
1666, 1668, 1834, 1835, 1669
328, 1663, 1829, 1830, 1664, 1670, 1836, 1837, 1671, 1831, 1832, 1833, 1666, 1838, 1839, 1840,
1673, 1675, 1841, 1842, 1676
329, 1617, 1783, 1843, 1677, 1619, 1785, 1844, 1678, 1788, 1845, 1846, 1679, 1791, 1847, 1848,
1681, 1627, 1793, 1849, 1683
330, 1619, 1785, 1844, 1678, 1629, 1795, 1850, 1684, 1791, 1847, 1848, 1681, 1798, 1851, 1852,
1685, 1634, 1800, 1853, 1687
331, 1629, 1795, 1850, 1684, 1636, 1802, 1854, 1688, 1798, 1851, 1852, 1685, 1805, 1855, 1856,
1689, 1641, 1807, 1857, 1691
332, 1636, 1802, 1854, 1688, 1643, 1809, 1858, 1692, 1805, 1855, 1856, 1689, 1812, 1859, 1860,
1693, 1648, 1814, 1861, 1695
333, 1643, 1809, 1858, 1692, 1650, 1816, 1862, 1696, 1812, 1859, 1860, 1693, 1819, 1863, 1864,
1697, 1655, 1821, 1865, 1699
334, 1650, 1816, 1862, 1696, 1657, 1823, 1866, 1700, 1819, 1863, 1864, 1697, 1826, 1867, 1868,
1701, 1662, 1828, 1869, 1703
335, 1657, 1823, 1866, 1700, 1664, 1830, 1870, 1704, 1826, 1867, 1868, 1701, 1833, 1871, 1872,
1705, 1669, 1835, 1873, 1707
336, 1664, 1830, 1870, 1704, 1671, 1837, 1874, 1708, 1833, 1871, 1872, 1705, 1840, 1875, 1876,
1709, 1676, 1842, 1877, 1711
337, 1677, 1843, 1878, 1712, 1678, 1844, 1879, 1713, 1846, 1880, 1881, 1714, 1848, 1882, 1883,
1716, 1683, 1849, 1884, 1718
338, 1678, 1844, 1879, 1713, 1684, 1850, 1885, 1719, 1848, 1882, 1883, 1716, 1852, 1886, 1887,
1720, 1687, 1853, 1888, 1722
339, 1684, 1850, 1885, 1719, 1688, 1854, 1889, 1723, 1852, 1886, 1887, 1720, 1856, 1890, 1891,
1724, 1691, 1857, 1892, 1726
340, 1688, 1854, 1889, 1723, 1692, 1858, 1893, 1727, 1856, 1890, 1891, 1724, 1860, 1894, 1895,
1728, 1695, 1861, 1896, 1730
341, 1692, 1858, 1893, 1727, 1696, 1862, 1897, 1731, 1860, 1894, 1895, 1728, 1864, 1898, 1899,
1732, 1699, 1865, 1900, 1734
342, 1696, 1862, 1897, 1731, 1700, 1866, 1901, 1735, 1864, 1898, 1899, 1732, 1868, 1902, 1903,
1736, 1703, 1869, 1904, 1738
343, 1700, 1866, 1901, 1735, 1704, 1870, 1905, 1739, 1868, 1902, 1903, 1736, 1872, 1906, 1907,
1740, 1707, 1873, 1908, 1742
344, 1704, 1870, 1905, 1739, 1708, 1874, 1909, 1743, 1872, 1906, 1907, 1740, 1876, 1910, 1911,
1744, 1711, 1877, 1912, 1746
345, 1712, 1878, 1913, 1747, 1713, 1879, 1914, 1748, 1881, 1915, 1916, 1749, 1883, 1917, 1918,
1751, 1718, 1884, 1919, 1753
346, 1713, 1879, 1914, 1748, 1719, 1885, 1920, 1754, 1883, 1917, 1918, 1751, 1887, 1921, 1922,
1755, 1722, 1888, 1923, 1757
347, 1719, 1885, 1920, 1754, 1723, 1889, 1924, 1758, 1887, 1921, 1922, 1755, 1891, 1925, 1926,
1759, 1726, 1892, 1927, 1761
348, 1723, 1889, 1924, 1758, 1727, 1893, 1928, 1762, 1891, 1925, 1926, 1759, 1895, 1929, 1930,
1763, 1730, 1896, 1931, 1765
349, 1727, 1893, 1928, 1762, 1731, 1897, 1932, 1766, 1895, 1929, 1930, 1763, 1899, 1933, 1934,
1767, 1734, 1900, 1935, 1769
350, 1731, 1897, 1932, 1766, 1735, 1901, 1936, 1770, 1899, 1933, 1934, 1767, 1903, 1937, 1938,
1771, 1738, 1904, 1939, 1773
351, 1735, 1901, 1936, 1770, 1739, 1905, 1940, 1774, 1903, 1937, 1938, 1771, 1907, 1941, 1942,
1775, 1742, 1908, 1943, 1777
352, 1739, 1905, 1940, 1774, 1743, 1909, 1944, 1778, 1907, 1941, 1942, 1775, 1911, 1945, 1946,
1779, 1746, 1912, 1947, 1781
353, 1782, 1948, 1949, 1783, 1784, 1950, 1951, 1785, 1952, 1953, 1954, 1787, 1955, 1956, 1957,
1790, 1792, 1958, 1959, 1793
354, 1784, 1950, 1951, 1785, 1794, 1960, 1961, 1795, 1955, 1956, 1957, 1790, 1962, 1963, 1964,
1797, 1799, 1965, 1966, 1800
355, 1794, 1960, 1961, 1795, 1801, 1967, 1968, 1802, 1962, 1963, 1964, 1797, 1969, 1970, 1971,
1804, 1806, 1972, 1973, 1807
356, 1801, 1967, 1968, 1802, 1808, 1974, 1975, 1809, 1969, 1970, 1971, 1804, 1976, 1977, 1978,
1811, 1813, 1979, 1980, 1814
357, 1808, 1974, 1975, 1809, 1815, 1981, 1982, 1816, 1976, 1977, 1978, 1811, 1983, 1984, 1985,
1818, 1820, 1986, 1987, 1821
358, 1815, 1981, 1982, 1816, 1822, 1988, 1989, 1823, 1983, 1984, 1985, 1818, 1990, 1991, 1992,
1825, 1827, 1993, 1994, 1828
359, 1822, 1988, 1989, 1823, 1829, 1995, 1996, 1830, 1990, 1991, 1992, 1825, 1997, 1998, 1999,
1832, 1834, 2000, 2001, 1835
360, 1829, 1995, 1996, 1830, 1836, 2002, 2003, 1837, 1997, 1998, 1999, 1832, 2004, 2005, 2006,
1839, 1841, 2007, 2008, 1842
361, 1783, 1949, 2009, 1843, 1785, 1951, 2010, 1844, 1954, 2011, 2012, 1845, 1957, 2013, 2014,
1847, 1793, 1959, 2015, 1849
362, 1785, 1951, 2010, 1844, 1795, 1961, 2016, 1850, 1957, 2013, 2014, 1847, 1964, 2017, 2018,
1851, 1800, 1966, 2019, 1853
363, 1795, 1961, 2016, 1850, 1802, 1968, 2020, 1854, 1964, 2017, 2018, 1851, 1971, 2021, 2022,
1855, 1807, 1973, 2023, 1857
364, 1802, 1968, 2020, 1854, 1809, 1975, 2024, 1858, 1971, 2021, 2022, 1855, 1978, 2025, 2026,
1859, 1814, 1980, 2027, 1861
365, 1809, 1975, 2024, 1858, 1816, 1982, 2028, 1862, 1978, 2025, 2026, 1859, 1985, 2029, 2030,
1863, 1821, 1987, 2031, 1865
366, 1816, 1982, 2028, 1862, 1823, 1989, 2032, 1866, 1985, 2029, 2030, 1863, 1992, 2033, 2034,
1867, 1828, 1994, 2035, 1869
367, 1823, 1989, 2032, 1866, 1830, 1996, 2036, 1870, 1992, 2033, 2034, 1867, 1999, 2037, 2038,
1871, 1835, 2001, 2039, 1873
368, 1830, 1996, 2036, 1870, 1837, 2003, 2040, 1874, 1999, 2037, 2038, 1871, 2006, 2041, 2042,
1875, 1842, 2008, 2043, 1877
369, 1843, 2009, 2044, 1878, 1844, 2010, 2045, 1879, 2012, 2046, 2047, 1880, 2014, 2048, 2049,
1882, 1849, 2015, 2050, 1884
370, 1844, 2010, 2045, 1879, 1850, 2016, 2051, 1885, 2014, 2048, 2049, 1882, 2018, 2052, 2053,
1886, 1853, 2019, 2054, 1888
371, 1850, 2016, 2051, 1885, 1854, 2020, 2055, 1889, 2018, 2052, 2053, 1886, 2022, 2056, 2057,
1890, 1857, 2023, 2058, 1892
372, 1854, 2020, 2055, 1889, 1858, 2024, 2059, 1893, 2022, 2056, 2057, 1890, 2026, 2060, 2061,
1894, 1861, 2027, 2062, 1896
373, 1858, 2024, 2059, 1893, 1862, 2028, 2063, 1897, 2026, 2060, 2061, 1894, 2030, 2064, 2065,
1898, 1865, 2031, 2066, 1900
374, 1862, 2028, 2063, 1897, 1866, 2032, 2067, 1901, 2030, 2064, 2065, 1898, 2034, 2068, 2069,
1902, 1869, 2035, 2070, 1904
375, 1866, 2032, 2067, 1901, 1870, 2036, 2071, 1905, 2034, 2068, 2069, 1902, 2038, 2072, 2073,
1906, 1873, 2039, 2074, 1908
376, 1870, 2036, 2071, 1905, 1874, 2040, 2075, 1909, 2038, 2072, 2073, 1906, 2042, 2076, 2077,
1910, 1877, 2043, 2078, 1912
377, 1878, 2044, 2079, 1913, 1879, 2045, 2080, 1914, 2047, 2081, 2082, 1915, 2049, 2083, 2084,
1917, 1884, 2050, 2085, 1919
378, 1879, 2045, 2080, 1914, 1885, 2051, 2086, 1920, 2049, 2083, 2084, 1917, 2053, 2087, 2088,
1921, 1888, 2054, 2089, 1923
379, 1885, 2051, 2086, 1920, 1889, 2055, 2090, 1924, 2053, 2087, 2088, 1921, 2057, 2091, 2092,
1925, 1892, 2058, 2093, 1927
380, 1889, 2055, 2090, 1924, 1893, 2059, 2094, 1928, 2057, 2091, 2092, 1925, 2061, 2095, 2096,
1929, 1896, 2062, 2097, 1931
381, 1893, 2059, 2094, 1928, 1897, 2063, 2098, 1932, 2061, 2095, 2096, 1929, 2065, 2099, 2100,
1933, 1900, 2066, 2101, 1935
382, 1897, 2063, 2098, 1932, 1901, 2067, 2102, 1936, 2065, 2099, 2100, 1933, 2069, 2103, 2104,
1937, 1904, 2070, 2105, 1939
383, 1901, 2067, 2102, 1936, 1905, 2071, 2106, 1940, 2069, 2103, 2104, 1937, 2073, 2107, 2108,
1941, 1908, 2074, 2109, 1943
384, 1905, 2071, 2106, 1940, 1909, 2075, 2110, 1944, 2073, 2107, 2108, 1941, 2077, 2111, 2112,
1945, 1912, 2078, 2113, 1947
385, 1948, 2114, 2115, 1949, 1950, 2116, 2117, 1951, 2118, 2119, 2120, 1953, 2121, 2122, 2123,
1956, 1958, 2124, 2125, 1959
386, 1950, 2116, 2117, 1951, 1960, 2126, 2127, 1961, 2121, 2122, 2123, 1956, 2128, 2129, 2130,
1963, 1965, 2131, 2132, 1966
387, 1960, 2126, 2127, 1961, 1967, 2133, 2134, 1968, 2128, 2129, 2130, 1963, 2135, 2136, 2137,
1970, 1972, 2138, 2139, 1973
388, 1967, 2133, 2134, 1968, 1974, 2140, 2141, 1975, 2135, 2136, 2137, 1970, 2142, 2143, 2144,
1977, 1979, 2145, 2146, 1980
389, 1974, 2140, 2141, 1975, 1981, 2147, 2148, 1982, 2142, 2143, 2144, 1977, 2149, 2150, 2151,
1984, 1986, 2152, 2153, 1987
390, 1981, 2147, 2148, 1982, 1988, 2154, 2155, 1989, 2149, 2150, 2151, 1984, 2156, 2157, 2158,
1991, 1993, 2159, 2160, 1994
391, 1988, 2154, 2155, 1989, 1995, 2161, 2162, 1996, 2156, 2157, 2158, 1991, 2163, 2164, 2165,
1998, 2000, 2166, 2167, 2001
392, 1995, 2161, 2162, 1996, 2002, 2168, 2169, 2003, 2163, 2164, 2165, 1998, 2170, 2171, 2172,
2005, 2007, 2173, 2174, 2008
393, 1949, 2115, 2175, 2009, 1951, 2117, 2176, 2010, 2120, 2177, 2178, 2011, 2123, 2179, 2180,
2013, 1959, 2125, 2181, 2015
394, 1951, 2117, 2176, 2010, 1961, 2127, 2182, 2016, 2123, 2179, 2180, 2013, 2130, 2183, 2184,
2017, 1966, 2132, 2185, 2019
395, 1961, 2127, 2182, 2016, 1968, 2134, 2186, 2020, 2130, 2183, 2184, 2017, 2137, 2187, 2188,
2021, 1973, 2139, 2189, 2023
396, 1968, 2134, 2186, 2020, 1975, 2141, 2190, 2024, 2137, 2187, 2188, 2021, 2144, 2191, 2192,
2025, 1980, 2146, 2193, 2027
397, 1975, 2141, 2190, 2024, 1982, 2148, 2194, 2028, 2144, 2191, 2192, 2025, 2151, 2195, 2196,
2029, 1987, 2153, 2197, 2031
398, 1982, 2148, 2194, 2028, 1989, 2155, 2198, 2032, 2151, 2195, 2196, 2029, 2158, 2199, 2200,
2033, 1994, 2160, 2201, 2035
399, 1989, 2155, 2198, 2032, 1996, 2162, 2202, 2036, 2158, 2199, 2200, 2033, 2165, 2203, 2204,
2037, 2001, 2167, 2205, 2039
400, 1996, 2162, 2202, 2036, 2003, 2169, 2206, 2040, 2165, 2203, 2204, 2037, 2172, 2207, 2208,
2041, 2008, 2174, 2209, 2043
401, 2009, 2175, 2210, 2044, 2010, 2176, 2211, 2045, 2178, 2212, 2213, 2046, 2180, 2214, 2215,
2048, 2015, 2181, 2216, 2050
402, 2010, 2176, 2211, 2045, 2016, 2182, 2217, 2051, 2180, 2214, 2215, 2048, 2184, 2218, 2219,
2052, 2019, 2185, 2220, 2054
403, 2016, 2182, 2217, 2051, 2020, 2186, 2221, 2055, 2184, 2218, 2219, 2052, 2188, 2222, 2223,
2056, 2023, 2189, 2224, 2058
404, 2020, 2186, 2221, 2055, 2024, 2190, 2225, 2059, 2188, 2222, 2223, 2056, 2192, 2226, 2227,
2060, 2027, 2193, 2228, 2062
405, 2024, 2190, 2225, 2059, 2028, 2194, 2229, 2063, 2192, 2226, 2227, 2060, 2196, 2230, 2231,
2064, 2031, 2197, 2232, 2066
406, 2028, 2194, 2229, 2063, 2032, 2198, 2233, 2067, 2196, 2230, 2231, 2064, 2200, 2234, 2235,
2068, 2035, 2201, 2236, 2070
407, 2032, 2198, 2233, 2067, 2036, 2202, 2237, 2071, 2200, 2234, 2235, 2068, 2204, 2238, 2239,
2072, 2039, 2205, 2240, 2074
408, 2036, 2202, 2237, 2071, 2040, 2206, 2241, 2075, 2204, 2238, 2239, 2072, 2208, 2242, 2243,
2076, 2043, 2209, 2244, 2078
409, 2044, 2210, 2245, 2079, 2045, 2211, 2246, 2080, 2213, 2247, 2248, 2081, 2215, 2249, 2250,
2083, 2050, 2216, 2251, 2085
410, 2045, 2211, 2246, 2080, 2051, 2217, 2252, 2086, 2215, 2249, 2250, 2083, 2219, 2253, 2254,
2087, 2054, 2220, 2255, 2089
411, 2051, 2217, 2252, 2086, 2055, 2221, 2256, 2090, 2219, 2253, 2254, 2087, 2223, 2257, 2258,
2091, 2058, 2224, 2259, 2093
412, 2055, 2221, 2256, 2090, 2059, 2225, 2260, 2094, 2223, 2257, 2258, 2091, 2227, 2261, 2262,
2095, 2062, 2228, 2263, 2097
413, 2059, 2225, 2260, 2094, 2063, 2229, 2264, 2098, 2227, 2261, 2262, 2095, 2231, 2265, 2266,
2099, 2066, 2232, 2267, 2101
414, 2063, 2229, 2264, 2098, 2067, 2233, 2268, 2102, 2231, 2265, 2266, 2099, 2235, 2269, 2270,
2103, 2070, 2236, 2271, 2105
415, 2067, 2233, 2268, 2102, 2071, 2237, 2272, 2106, 2235, 2269, 2270, 2103, 2239, 2273, 2274,
2107, 2074, 2240, 2275, 2109
416, 2071, 2237, 2272, 2106, 2075, 2241, 2276, 2110, 2239, 2273, 2274, 2107, 2243, 2277, 2278,
2111, 2078, 2244, 2279, 2113
417, 2114, 2280, 2281, 2115, 2116, 2282, 2283, 2117, 2284, 2285, 2286, 2119, 2287, 2288, 2289,
2122, 2124, 2290, 2291, 2125
418, 2116, 2282, 2283, 2117, 2126, 2292, 2293, 2127, 2287, 2288, 2289, 2122, 2294, 2295, 2296,
2129, 2131, 2297, 2298, 2132
419, 2126, 2292, 2293, 2127, 2133, 2299, 2300, 2134, 2294, 2295, 2296, 2129, 2301, 2302, 2303,
2136, 2138, 2304, 2305, 2139
420, 2133, 2299, 2300, 2134, 2140, 2306, 2307, 2141, 2301, 2302, 2303, 2136, 2308, 2309, 2310,
2143, 2145, 2311, 2312, 2146
421, 2140, 2306, 2307, 2141, 2147, 2313, 2314, 2148, 2308, 2309, 2310, 2143, 2315, 2316, 2317,
2150, 2152, 2318, 2319, 2153
422, 2147, 2313, 2314, 2148, 2154, 2320, 2321, 2155, 2315, 2316, 2317, 2150, 2322, 2323, 2324,
2157, 2159, 2325, 2326, 2160
423, 2154, 2320, 2321, 2155, 2161, 2327, 2328, 2162, 2322, 2323, 2324, 2157, 2329, 2330, 2331,
2164, 2166, 2332, 2333, 2167
424, 2161, 2327, 2328, 2162, 2168, 2334, 2335, 2169, 2329, 2330, 2331, 2164, 2336, 2337, 2338,
2171, 2173, 2339, 2340, 2174
425, 2115, 2281, 2341, 2175, 2117, 2283, 2342, 2176, 2286, 2343, 2344, 2177, 2289, 2345, 2346,
2179, 2125, 2291, 2347, 2181
426, 2117, 2283, 2342, 2176, 2127, 2293, 2348, 2182, 2289, 2345, 2346, 2179, 2296, 2349, 2350,
2183, 2132, 2298, 2351, 2185
427, 2127, 2293, 2348, 2182, 2134, 2300, 2352, 2186, 2296, 2349, 2350, 2183, 2303, 2353, 2354,
2187, 2139, 2305, 2355, 2189
428, 2134, 2300, 2352, 2186, 2141, 2307, 2356, 2190, 2303, 2353, 2354, 2187, 2310, 2357, 2358,
2191, 2146, 2312, 2359, 2193
429, 2141, 2307, 2356, 2190, 2148, 2314, 2360, 2194, 2310, 2357, 2358, 2191, 2317, 2361, 2362,
2195, 2153, 2319, 2363, 2197
430, 2148, 2314, 2360, 2194, 2155, 2321, 2364, 2198, 2317, 2361, 2362, 2195, 2324, 2365, 2366,
2199, 2160, 2326, 2367, 2201
431, 2155, 2321, 2364, 2198, 2162, 2328, 2368, 2202, 2324, 2365, 2366, 2199, 2331, 2369, 2370,
2203, 2167, 2333, 2371, 2205
432, 2162, 2328, 2368, 2202, 2169, 2335, 2372, 2206, 2331, 2369, 2370, 2203, 2338, 2373, 2374,
2207, 2174, 2340, 2375, 2209
433, 2175, 2341, 2376, 2210, 2176, 2342, 2377, 2211, 2344, 2378, 2379, 2212, 2346, 2380, 2381,
2214, 2181, 2347, 2382, 2216
434, 2176, 2342, 2377, 2211, 2182, 2348, 2383, 2217, 2346, 2380, 2381, 2214, 2350, 2384, 2385,
2218, 2185, 2351, 2386, 2220
435, 2182, 2348, 2383, 2217, 2186, 2352, 2387, 2221, 2350, 2384, 2385, 2218, 2354, 2388, 2389,
2222, 2189, 2355, 2390, 2224
436, 2186, 2352, 2387, 2221, 2190, 2356, 2391, 2225, 2354, 2388, 2389, 2222, 2358, 2392, 2393,
2226, 2193, 2359, 2394, 2228
437, 2190, 2356, 2391, 2225, 2194, 2360, 2395, 2229, 2358, 2392, 2393, 2226, 2362, 2396, 2397,
2230, 2197, 2363, 2398, 2232
438, 2194, 2360, 2395, 2229, 2198, 2364, 2399, 2233, 2362, 2396, 2397, 2230, 2366, 2400, 2401,
2234, 2201, 2367, 2402, 2236
439, 2198, 2364, 2399, 2233, 2202, 2368, 2403, 2237, 2366, 2400, 2401, 2234, 2370, 2404, 2405,
2238, 2205, 2371, 2406, 2240
440, 2202, 2368, 2403, 2237, 2206, 2372, 2407, 2241, 2370, 2404, 2405, 2238, 2374, 2408, 2409,
2242, 2209, 2375, 2410, 2244
441, 2210, 2376, 2411, 2245, 2211, 2377, 2412, 2246, 2379, 2413, 2414, 2247, 2381, 2415, 2416,
2249, 2216, 2382, 2417, 2251
442, 2211, 2377, 2412, 2246, 2217, 2383, 2418, 2252, 2381, 2415, 2416, 2249, 2385, 2419, 2420,
2253, 2220, 2386, 2421, 2255
443, 2217, 2383, 2418, 2252, 2221, 2387, 2422, 2256, 2385, 2419, 2420, 2253, 2389, 2423, 2424,
2257, 2224, 2390, 2425, 2259
444, 2221, 2387, 2422, 2256, 2225, 2391, 2426, 2260, 2389, 2423, 2424, 2257, 2393, 2427, 2428,
2261, 2228, 2394, 2429, 2263
445, 2225, 2391, 2426, 2260, 2229, 2395, 2430, 2264, 2393, 2427, 2428, 2261, 2397, 2431, 2432,
2265, 2232, 2398, 2433, 2267
446, 2229, 2395, 2430, 2264, 2233, 2399, 2434, 2268, 2397, 2431, 2432, 2265, 2401, 2435, 2436,
2269, 2236, 2402, 2437, 2271
447, 2233, 2399, 2434, 2268, 2237, 2403, 2438, 2272, 2401, 2435, 2436, 2269, 2405, 2439, 2440,
2273, 2240, 2406, 2441, 2275
448, 2237, 2403, 2438, 2272, 2241, 2407, 2442, 2276, 2405, 2439, 2440, 2273, 2409, 2443, 2444,
2277, 2244, 2410, 2445, 2279
449, 2280, 2446, 2447, 2281, 2282, 2448, 2449, 2283, 2450, 2451, 2452, 2285, 2453, 2454, 2455,
2288, 2290, 2456, 2457, 2291
450, 2282, 2448, 2449, 2283, 2292, 2458, 2459, 2293, 2453, 2454, 2455, 2288, 2460, 2461, 2462,
2295, 2297, 2463, 2464, 2298
451, 2292, 2458, 2459, 2293, 2299, 2465, 2466, 2300, 2460, 2461, 2462, 2295, 2467, 2468, 2469,
2302, 2304, 2470, 2471, 2305
452, 2299, 2465, 2466, 2300, 2306, 2472, 2473, 2307, 2467, 2468, 2469, 2302, 2474, 2475, 2476,
2309, 2311, 2477, 2478, 2312
453, 2306, 2472, 2473, 2307, 2313, 2479, 2480, 2314, 2474, 2475, 2476, 2309, 2481, 2482, 2483,
2316, 2318, 2484, 2485, 2319
454, 2313, 2479, 2480, 2314, 2320, 2486, 2487, 2321, 2481, 2482, 2483, 2316, 2488, 2489, 2490,
2323, 2325, 2491, 2492, 2326
455, 2320, 2486, 2487, 2321, 2327, 2493, 2494, 2328, 2488, 2489, 2490, 2323, 2495, 2496, 2497,
2330, 2332, 2498, 2499, 2333
456, 2327, 2493, 2494, 2328, 2334, 2500, 2501, 2335, 2495, 2496, 2497, 2330, 2502, 2503, 2504,
2337, 2339, 2505, 2506, 2340
457, 2281, 2447, 2507, 2341, 2283, 2449, 2508, 2342, 2452, 2509, 2510, 2343, 2455, 2511, 2512,
2345, 2291, 2457, 2513, 2347
458, 2283, 2449, 2508, 2342, 2293, 2459, 2514, 2348, 2455, 2511, 2512, 2345, 2462, 2515, 2516,
2349, 2298, 2464, 2517, 2351
459, 2293, 2459, 2514, 2348, 2300, 2466, 2518, 2352, 2462, 2515, 2516, 2349, 2469, 2519, 2520,
2353, 2305, 2471, 2521, 2355
460, 2300, 2466, 2518, 2352, 2307, 2473, 2522, 2356, 2469, 2519, 2520, 2353, 2476, 2523, 2524,
2357, 2312, 2478, 2525, 2359
461, 2307, 2473, 2522, 2356, 2314, 2480, 2526, 2360, 2476, 2523, 2524, 2357, 2483, 2527, 2528,
2361, 2319, 2485, 2529, 2363
462, 2314, 2480, 2526, 2360, 2321, 2487, 2530, 2364, 2483, 2527, 2528, 2361, 2490, 2531, 2532,
2365, 2326, 2492, 2533, 2367
463, 2321, 2487, 2530, 2364, 2328, 2494, 2534, 2368, 2490, 2531, 2532, 2365, 2497, 2535, 2536,
2369, 2333, 2499, 2537, 2371
464, 2328, 2494, 2534, 2368, 2335, 2501, 2538, 2372, 2497, 2535, 2536, 2369, 2504, 2539, 2540,
2373, 2340, 2506, 2541, 2375
465, 2341, 2507, 2542, 2376, 2342, 2508, 2543, 2377, 2510, 2544, 2545, 2378, 2512, 2546, 2547,
2380, 2347, 2513, 2548, 2382
466, 2342, 2508, 2543, 2377, 2348, 2514, 2549, 2383, 2512, 2546, 2547, 2380, 2516, 2550, 2551,
2384, 2351, 2517, 2552, 2386
467, 2348, 2514, 2549, 2383, 2352, 2518, 2553, 2387, 2516, 2550, 2551, 2384, 2520, 2554, 2555,
2388, 2355, 2521, 2556, 2390
468, 2352, 2518, 2553, 2387, 2356, 2522, 2557, 2391, 2520, 2554, 2555, 2388, 2524, 2558, 2559,
2392, 2359, 2525, 2560, 2394
469, 2356, 2522, 2557, 2391, 2360, 2526, 2561, 2395, 2524, 2558, 2559, 2392, 2528, 2562, 2563,
2396, 2363, 2529, 2564, 2398
470, 2360, 2526, 2561, 2395, 2364, 2530, 2565, 2399, 2528, 2562, 2563, 2396, 2532, 2566, 2567,
2400, 2367, 2533, 2568, 2402
471, 2364, 2530, 2565, 2399, 2368, 2534, 2569, 2403, 2532, 2566, 2567, 2400, 2536, 2570, 2571,
2404, 2371, 2537, 2572, 2406
472, 2368, 2534, 2569, 2403, 2372, 2538, 2573, 2407, 2536, 2570, 2571, 2404, 2540, 2574, 2575,
2408, 2375, 2541, 2576, 2410
473, 2376, 2542, 2577, 2411, 2377, 2543, 2578, 2412, 2545, 2579, 2580, 2413, 2547, 2581, 2582,
2415, 2382, 2548, 2583, 2417
474, 2377, 2543, 2578, 2412, 2383, 2549, 2584, 2418, 2547, 2581, 2582, 2415, 2551, 2585, 2586,
2419, 2386, 2552, 2587, 2421
475, 2383, 2549, 2584, 2418, 2387, 2553, 2588, 2422, 2551, 2585, 2586, 2419, 2555, 2589, 2590,
2423, 2390, 2556, 2591, 2425
476, 2387, 2553, 2588, 2422, 2391, 2557, 2592, 2426, 2555, 2589, 2590, 2423, 2559, 2593, 2594,
2427, 2394, 2560, 2595, 2429
477, 2391, 2557, 2592, 2426, 2395, 2561, 2596, 2430, 2559, 2593, 2594, 2427, 2563, 2597, 2598,
2431, 2398, 2564, 2599, 2433
478, 2395, 2561, 2596, 2430, 2399, 2565, 2600, 2434, 2563, 2597, 2598, 2431, 2567, 2601, 2602,
2435, 2402, 2568, 2603, 2437
479, 2399, 2565, 2600, 2434, 2403, 2569, 2604, 2438, 2567, 2601, 2602, 2435, 2571, 2605, 2606,
2439, 2406, 2572, 2607, 2441
480, 2403, 2569, 2604, 2438, 2407, 2573, 2608, 2442, 2571, 2605, 2606, 2439, 2575, 2609, 2610,
2443, 2410, 2576, 2611, 2445
481, 2446, 2612, 2613, 2447, 2448, 2614, 2615, 2449, 2616, 2617, 2618, 2451, 2619, 2620, 2621,
2454, 2456, 2622, 2623, 2457
482, 2448, 2614, 2615, 2449, 2458, 2624, 2625, 2459, 2619, 2620, 2621, 2454, 2626, 2627, 2628,
2461, 2463, 2629, 2630, 2464
483, 2458, 2624, 2625, 2459, 2465, 2631, 2632, 2466, 2626, 2627, 2628, 2461, 2633, 2634, 2635,
2468, 2470, 2636, 2637, 2471
484, 2465, 2631, 2632, 2466, 2472, 2638, 2639, 2473, 2633, 2634, 2635, 2468, 2640, 2641, 2642,
2475, 2477, 2643, 2644, 2478
485, 2472, 2638, 2639, 2473, 2479, 2645, 2646, 2480, 2640, 2641, 2642, 2475, 2647, 2648, 2649,
2482, 2484, 2650, 2651, 2485
486, 2479, 2645, 2646, 2480, 2486, 2652, 2653, 2487, 2647, 2648, 2649, 2482, 2654, 2655, 2656,
2489, 2491, 2657, 2658, 2492
487, 2486, 2652, 2653, 2487, 2493, 2659, 2660, 2494, 2654, 2655, 2656, 2489, 2661, 2662, 2663,
2496, 2498, 2664, 2665, 2499
488, 2493, 2659, 2660, 2494, 2500, 2666, 2667, 2501, 2661, 2662, 2663, 2496, 2668, 2669, 2670,
2503, 2505, 2671, 2672, 2506
489, 2447, 2613, 2673, 2507, 2449, 2615, 2674, 2508, 2618, 2675, 2676, 2509, 2621, 2677, 2678,
2511, 2457, 2623, 2679, 2513
490, 2449, 2615, 2674, 2508, 2459, 2625, 2680, 2514, 2621, 2677, 2678, 2511, 2628, 2681, 2682,
2515, 2464, 2630, 2683, 2517
491, 2459, 2625, 2680, 2514, 2466, 2632, 2684, 2518, 2628, 2681, 2682, 2515, 2635, 2685, 2686,
2519, 2471, 2637, 2687, 2521
492, 2466, 2632, 2684, 2518, 2473, 2639, 2688, 2522, 2635, 2685, 2686, 2519, 2642, 2689, 2690,
2523, 2478, 2644, 2691, 2525
493, 2473, 2639, 2688, 2522, 2480, 2646, 2692, 2526, 2642, 2689, 2690, 2523, 2649, 2693, 2694,
2527, 2485, 2651, 2695, 2529
494, 2480, 2646, 2692, 2526, 2487, 2653, 2696, 2530, 2649, 2693, 2694, 2527, 2656, 2697, 2698,
2531, 2492, 2658, 2699, 2533
495, 2487, 2653, 2696, 2530, 2494, 2660, 2700, 2534, 2656, 2697, 2698, 2531, 2663, 2701, 2702,
2535, 2499, 2665, 2703, 2537
496, 2494, 2660, 2700, 2534, 2501, 2667, 2704, 2538, 2663, 2701, 2702, 2535, 2670, 2705, 2706,
2539, 2506, 2672, 2707, 2541
497, 2507, 2673, 2708, 2542, 2508, 2674, 2709, 2543, 2676, 2710, 2711, 2544, 2678, 2712, 2713,
2546, 2513, 2679, 2714, 2548
498, 2508, 2674, 2709, 2543, 2514, 2680, 2715, 2549, 2678, 2712, 2713, 2546, 2682, 2716, 2717,
2550, 2517, 2683, 2718, 2552
499, 2514, 2680, 2715, 2549, 2518, 2684, 2719, 2553, 2682, 2716, 2717, 2550, 2686, 2720, 2721,
2554, 2521, 2687, 2722, 2556
500, 2518, 2684, 2719, 2553, 2522, 2688, 2723, 2557, 2686, 2720, 2721, 2554, 2690, 2724, 2725,
2558, 2525, 2691, 2726, 2560
501, 2522, 2688, 2723, 2557, 2526, 2692, 2727, 2561, 2690, 2724, 2725, 2558, 2694, 2728, 2729,
2562, 2529, 2695, 2730, 2564
502, 2526, 2692, 2727, 2561, 2530, 2696, 2731, 2565, 2694, 2728, 2729, 2562, 2698, 2732, 2733,
2566, 2533, 2699, 2734, 2568
503, 2530, 2696, 2731, 2565, 2534, 2700, 2735, 2569, 2698, 2732, 2733, 2566, 2702, 2736, 2737,
2570, 2537, 2703, 2738, 2572
504, 2534, 2700, 2735, 2569, 2538, 2704, 2739, 2573, 2702, 2736, 2737, 2570, 2706, 2740, 2741,
2574, 2541, 2707, 2742, 2576
505, 2542, 2708, 2743, 2577, 2543, 2709, 2744, 2578, 2711, 2745, 2746, 2579, 2713, 2747, 2748,
2581, 2548, 2714, 2749, 2583
506, 2543, 2709, 2744, 2578, 2549, 2715, 2750, 2584, 2713, 2747, 2748, 2581, 2717, 2751, 2752,
2585, 2552, 2718, 2753, 2587
507, 2549, 2715, 2750, 2584, 2553, 2719, 2754, 2588, 2717, 2751, 2752, 2585, 2721, 2755, 2756,
2589, 2556, 2722, 2757, 2591
508, 2553, 2719, 2754, 2588, 2557, 2723, 2758, 2592, 2721, 2755, 2756, 2589, 2725, 2759, 2760,
2593, 2560, 2726, 2761, 2595
509, 2557, 2723, 2758, 2592, 2561, 2727, 2762, 2596, 2725, 2759, 2760, 2593, 2729, 2763, 2764,
2597, 2564, 2730, 2765, 2599
510, 2561, 2727, 2762, 2596, 2565, 2731, 2766, 2600, 2729, 2763, 2764, 2597, 2733, 2767, 2768,
2601, 2568, 2734, 2769, 2603
511, 2565, 2731, 2766, 2600, 2569, 2735, 2770, 2604, 2733, 2767, 2768, 2601, 2737, 2771, 2772,
2605, 2572, 2738, 2773, 2607
512, 2569, 2735, 2770, 2604, 2573, 2739, 2774, 2608, 2737, 2771, 2772, 2605, 2741, 2775, 2776,
2609, 2576, 2742, 2777, 2611
513, 2612, 2778, 2779, 2613, 2614, 2780, 2781, 2615, 2782, 2783, 2784, 2617, 2785, 2786, 2787,
2620, 2622, 2788, 2789, 2623
514, 2614, 2780, 2781, 2615, 2624, 2790, 2791, 2625, 2785, 2786, 2787, 2620, 2792, 2793, 2794,
2627, 2629, 2795, 2796, 2630
515, 2624, 2790, 2791, 2625, 2631, 2797, 2798, 2632, 2792, 2793, 2794, 2627, 2799, 2800, 2801,
2634, 2636, 2802, 2803, 2637
516, 2631, 2797, 2798, 2632, 2638, 2804, 2805, 2639, 2799, 2800, 2801, 2634, 2806, 2807, 2808,
2641, 2643, 2809, 2810, 2644
517, 2638, 2804, 2805, 2639, 2645, 2811, 2812, 2646, 2806, 2807, 2808, 2641, 2813, 2814, 2815,
2648, 2650, 2816, 2817, 2651
518, 2645, 2811, 2812, 2646, 2652, 2818, 2819, 2653, 2813, 2814, 2815, 2648, 2820, 2821, 2822,
2655, 2657, 2823, 2824, 2658
519, 2652, 2818, 2819, 2653, 2659, 2825, 2826, 2660, 2820, 2821, 2822, 2655, 2827, 2828, 2829,
2662, 2664, 2830, 2831, 2665
520, 2659, 2825, 2826, 2660, 2666, 2832, 2833, 2667, 2827, 2828, 2829, 2662, 2834, 2835, 2836,
2669, 2671, 2837, 2838, 2672
521, 2613, 2779, 2839, 2673, 2615, 2781, 2840, 2674, 2784, 2841, 2842, 2675, 2787, 2843, 2844,
2677, 2623, 2789, 2845, 2679
522, 2615, 2781, 2840, 2674, 2625, 2791, 2846, 2680, 2787, 2843, 2844, 2677, 2794, 2847, 2848,
2681, 2630, 2796, 2849, 2683
523, 2625, 2791, 2846, 2680, 2632, 2798, 2850, 2684, 2794, 2847, 2848, 2681, 2801, 2851, 2852,
2685, 2637, 2803, 2853, 2687
524, 2632, 2798, 2850, 2684, 2639, 2805, 2854, 2688, 2801, 2851, 2852, 2685, 2808, 2855, 2856,
2689, 2644, 2810, 2857, 2691
525, 2639, 2805, 2854, 2688, 2646, 2812, 2858, 2692, 2808, 2855, 2856, 2689, 2815, 2859, 2860,
2693, 2651, 2817, 2861, 2695
526, 2646, 2812, 2858, 2692, 2653, 2819, 2862, 2696, 2815, 2859, 2860, 2693, 2822, 2863, 2864,
2697, 2658, 2824, 2865, 2699
527, 2653, 2819, 2862, 2696, 2660, 2826, 2866, 2700, 2822, 2863, 2864, 2697, 2829, 2867, 2868,
2701, 2665, 2831, 2869, 2703
528, 2660, 2826, 2866, 2700, 2667, 2833, 2870, 2704, 2829, 2867, 2868, 2701, 2836, 2871, 2872,
2705, 2672, 2838, 2873, 2707
529, 2673, 2839, 2874, 2708, 2674, 2840, 2875, 2709, 2842, 2876, 2877, 2710, 2844, 2878, 2879,
2712, 2679, 2845, 2880, 2714
530, 2674, 2840, 2875, 2709, 2680, 2846, 2881, 2715, 2844, 2878, 2879, 2712, 2848, 2882, 2883,
2716, 2683, 2849, 2884, 2718
531, 2680, 2846, 2881, 2715, 2684, 2850, 2885, 2719, 2848, 2882, 2883, 2716, 2852, 2886, 2887,
2720, 2687, 2853, 2888, 2722
532, 2684, 2850, 2885, 2719, 2688, 2854, 2889, 2723, 2852, 2886, 2887, 2720, 2856, 2890, 2891,
2724, 2691, 2857, 2892, 2726
533, 2688, 2854, 2889, 2723, 2692, 2858, 2893, 2727, 2856, 2890, 2891, 2724, 2860, 2894, 2895,
2728, 2695, 2861, 2896, 2730
534, 2692, 2858, 2893, 2727, 2696, 2862, 2897, 2731, 2860, 2894, 2895, 2728, 2864, 2898, 2899,
2732, 2699, 2865, 2900, 2734
535, 2696, 2862, 2897, 2731, 2700, 2866, 2901, 2735, 2864, 2898, 2899, 2732, 2868, 2902, 2903,
2736, 2703, 2869, 2904, 2738
536, 2700, 2866, 2901, 2735, 2704, 2870, 2905, 2739, 2868, 2902, 2903, 2736, 2872, 2906, 2907,
2740, 2707, 2873, 2908, 2742
537, 2708, 2874, 2909, 2743, 2709, 2875, 2910, 2744, 2877, 2911, 2912, 2745, 2879, 2913, 2914,
2747, 2714, 2880, 2915, 2749
538, 2709, 2875, 2910, 2744, 2715, 2881, 2916, 2750, 2879, 2913, 2914, 2747, 2883, 2917, 2918,
2751, 2718, 2884, 2919, 2753
539, 2715, 2881, 2916, 2750, 2719, 2885, 2920, 2754, 2883, 2917, 2918, 2751, 2887, 2921, 2922,
2755, 2722, 2888, 2923, 2757
540, 2719, 2885, 2920, 2754, 2723, 2889, 2924, 2758, 2887, 2921, 2922, 2755, 2891, 2925, 2926,
2759, 2726, 2892, 2927, 2761
541, 2723, 2889, 2924, 2758, 2727, 2893, 2928, 2762, 2891, 2925, 2926, 2759, 2895, 2929, 2930,
2763, 2730, 2896, 2931, 2765
542, 2727, 2893, 2928, 2762, 2731, 2897, 2932, 2766, 2895, 2929, 2930, 2763, 2899, 2933, 2934,
2767, 2734, 2900, 2935, 2769
543, 2731, 2897, 2932, 2766, 2735, 2901, 2936, 2770, 2899, 2933, 2934, 2767, 2903, 2937, 2938,
2771, 2738, 2904, 2939, 2773
544, 2735, 2901, 2936, 2770, 2739, 2905, 2940, 2774, 2903, 2937, 2938, 2771, 2907, 2941, 2942,
2775, 2742, 2908, 2943, 2777
545, 2778, 2944, 2945, 2779, 2780, 2946, 2947, 2781, 2948, 2949, 2950, 2783, 2951, 2952, 2953,
2786, 2788, 2954, 2955, 2789
546, 2780, 2946, 2947, 2781, 2790, 2956, 2957, 2791, 2951, 2952, 2953, 2786, 2958, 2959, 2960,
2793, 2795, 2961, 2962, 2796
547, 2790, 2956, 2957, 2791, 2797, 2963, 2964, 2798, 2958, 2959, 2960, 2793, 2965, 2966, 2967,
2800, 2802, 2968, 2969, 2803
548, 2797, 2963, 2964, 2798, 2804, 2970, 2971, 2805, 2965, 2966, 2967, 2800, 2972, 2973, 2974,
2807, 2809, 2975, 2976, 2810
549, 2804, 2970, 2971, 2805, 2811, 2977, 2978, 2812, 2972, 2973, 2974, 2807, 2979, 2980, 2981,
2814, 2816, 2982, 2983, 2817
550, 2811, 2977, 2978, 2812, 2818, 2984, 2985, 2819, 2979, 2980, 2981, 2814, 2986, 2987, 2988,
2821, 2823, 2989, 2990, 2824
551, 2818, 2984, 2985, 2819, 2825, 2991, 2992, 2826, 2986, 2987, 2988, 2821, 2993, 2994, 2995,
2828, 2830, 2996, 2997, 2831
552, 2825, 2991, 2992, 2826, 2832, 2998, 2999, 2833, 2993, 2994, 2995, 2828, 3000, 3001, 3002,
2835, 2837, 3003, 3004, 2838
553, 2779, 2945, 3005, 2839, 2781, 2947, 3006, 2840, 2950, 3007, 3008, 2841, 2953, 3009, 3010,
2843, 2789, 2955, 3011, 2845
554, 2781, 2947, 3006, 2840, 2791, 2957, 3012, 2846, 2953, 3009, 3010, 2843, 2960, 3013, 3014,
2847, 2796, 2962, 3015, 2849
555, 2791, 2957, 3012, 2846, 2798, 2964, 3016, 2850, 2960, 3013, 3014, 2847, 2967, 3017, 3018,
2851, 2803, 2969, 3019, 2853
556, 2798, 2964, 3016, 2850, 2805, 2971, 3020, 2854, 2967, 3017, 3018, 2851, 2974, 3021, 3022,
2855, 2810, 2976, 3023, 2857
557, 2805, 2971, 3020, 2854, 2812, 2978, 3024, 2858, 2974, 3021, 3022, 2855, 2981, 3025, 3026,
2859, 2817, 2983, 3027, 2861
558, 2812, 2978, 3024, 2858, 2819, 2985, 3028, 2862, 2981, 3025, 3026, 2859, 2988, 3029, 3030,
2863, 2824, 2990, 3031, 2865
559, 2819, 2985, 3028, 2862, 2826, 2992, 3032, 2866, 2988, 3029, 3030, 2863, 2995, 3033, 3034,
2867, 2831, 2997, 3035, 2869
560, 2826, 2992, 3032, 2866, 2833, 2999, 3036, 2870, 2995, 3033, 3034, 2867, 3002, 3037, 3038,
2871, 2838, 3004, 3039, 2873
561, 2839, 3005, 3040, 2874, 2840, 3006, 3041, 2875, 3008, 3042, 3043, 2876, 3010, 3044, 3045,
2878, 2845, 3011, 3046, 2880
562, 2840, 3006, 3041, 2875, 2846, 3012, 3047, 2881, 3010, 3044, 3045, 2878, 3014, 3048, 3049,
2882, 2849, 3015, 3050, 2884
563, 2846, 3012, 3047, 2881, 2850, 3016, 3051, 2885, 3014, 3048, 3049, 2882, 3018, 3052, 3053,
2886, 2853, 3019, 3054, 2888
564, 2850, 3016, 3051, 2885, 2854, 3020, 3055, 2889, 3018, 3052, 3053, 2886, 3022, 3056, 3057,
2890, 2857, 3023, 3058, 2892
565, 2854, 3020, 3055, 2889, 2858, 3024, 3059, 2893, 3022, 3056, 3057, 2890, 3026, 3060, 3061,
2894, 2861, 3027, 3062, 2896
566, 2858, 3024, 3059, 2893, 2862, 3028, 3063, 2897, 3026, 3060, 3061, 2894, 3030, 3064, 3065,
2898, 2865, 3031, 3066, 2900
567, 2862, 3028, 3063, 2897, 2866, 3032, 3067, 2901, 3030, 3064, 3065, 2898, 3034, 3068, 3069,
2902, 2869, 3035, 3070, 2904
568, 2866, 3032, 3067, 2901, 2870, 3036, 3071, 2905, 3034, 3068, 3069, 2902, 3038, 3072, 3073,
2906, 2873, 3039, 3074, 2908
569, 2874, 3040, 3075, 2909, 2875, 3041, 3076, 2910, 3043, 3077, 3078, 2911, 3045, 3079, 3080,
2913, 2880, 3046, 3081, 2915
570, 2875, 3041, 3076, 2910, 2881, 3047, 3082, 2916, 3045, 3079, 3080, 2913, 3049, 3083, 3084,
2917, 2884, 3050, 3085, 2919
571, 2881, 3047, 3082, 2916, 2885, 3051, 3086, 2920, 3049, 3083, 3084, 2917, 3053, 3087, 3088,
2921, 2888, 3054, 3089, 2923
572, 2885, 3051, 3086, 2920, 2889, 3055, 3090, 2924, 3053, 3087, 3088, 2921, 3057, 3091, 3092,
2925, 2892, 3058, 3093, 2927
573, 2889, 3055, 3090, 2924, 2893, 3059, 3094, 2928, 3057, 3091, 3092, 2925, 3061, 3095, 3096,
2929, 2896, 3062, 3097, 2931
574, 2893, 3059, 3094, 2928, 2897, 3063, 3098, 2932, 3061, 3095, 3096, 2929, 3065, 3099, 3100,
2933, 2900, 3066, 3101, 2935
575, 2897, 3063, 3098, 2932, 2901, 3067, 3102, 2936, 3065, 3099, 3100, 2933, 3069, 3103, 3104,
2937, 2904, 3070, 3105, 2939
576, 2901, 3067, 3102, 2936, 2905, 3071, 3106, 2940, 3069, 3103, 3104, 2937, 3073, 3107, 3108,
2941, 2908, 3074, 3109, 2943
577, 2944, 3110, 3111, 2945, 2946, 3112, 3113, 2947, 3114, 3115, 3116, 2949, 3117, 3118, 3119,
2952, 2954, 3120, 3121, 2955
578, 2946, 3112, 3113, 2947, 2956, 3122, 3123, 2957, 3117, 3118, 3119, 2952, 3124, 3125, 3126,
2959, 2961, 3127, 3128, 2962
579, 2956, 3122, 3123, 2957, 2963, 3129, 3130, 2964, 3124, 3125, 3126, 2959, 3131, 3132, 3133,
2966, 2968, 3134, 3135, 2969
580, 2963, 3129, 3130, 2964, 2970, 3136, 3137, 2971, 3131, 3132, 3133, 2966, 3138, 3139, 3140,
2973, 2975, 3141, 3142, 2976
581, 2970, 3136, 3137, 2971, 2977, 3143, 3144, 2978, 3138, 3139, 3140, 2973, 3145, 3146, 3147,
2980, 2982, 3148, 3149, 2983
582, 2977, 3143, 3144, 2978, 2984, 3150, 3151, 2985, 3145, 3146, 3147, 2980, 3152, 3153, 3154,
2987, 2989, 3155, 3156, 2990
583, 2984, 3150, 3151, 2985, 2991, 3157, 3158, 2992, 3152, 3153, 3154, 2987, 3159, 3160, 3161,
2994, 2996, 3162, 3163, 2997
584, 2991, 3157, 3158, 2992, 2998, 3164, 3165, 2999, 3159, 3160, 3161, 2994, 3166, 3167, 3168,
3001, 3003, 3169, 3170, 3004
585, 2945, 3111, 3171, 3005, 2947, 3113, 3172, 3006, 3116, 3173, 3174, 3007, 3119, 3175, 3176,
3009, 2955, 3121, 3177, 3011
586, 2947, 3113, 3172, 3006, 2957, 3123, 3178, 3012, 3119, 3175, 3176, 3009, 3126, 3179, 3180,
3013, 2962, 3128, 3181, 3015
587, 2957, 3123, 3178, 3012, 2964, 3130, 3182, 3016, 3126, 3179, 3180, 3013, 3133, 3183, 3184,
3017, 2969, 3135, 3185, 3019
588, 2964, 3130, 3182, 3016, 2971, 3137, 3186, 3020, 3133, 3183, 3184, 3017, 3140, 3187, 3188,
3021, 2976, 3142, 3189, 3023
589, 2971, 3137, 3186, 3020, 2978, 3144, 3190, 3024, 3140, 3187, 3188, 3021, 3147, 3191, 3192,
3025, 2983, 3149, 3193, 3027
590, 2978, 3144, 3190, 3024, 2985, 3151, 3194, 3028, 3147, 3191, 3192, 3025, 3154, 3195, 3196,
3029, 2990, 3156, 3197, 3031
591, 2985, 3151, 3194, 3028, 2992, 3158, 3198, 3032, 3154, 3195, 3196, 3029, 3161, 3199, 3200,
3033, 2997, 3163, 3201, 3035
592, 2992, 3158, 3198, 3032, 2999, 3165, 3202, 3036, 3161, 3199, 3200, 3033, 3168, 3203, 3204,
3037, 3004, 3170, 3205, 3039
593, 3005, 3171, 3206, 3040, 3006, 3172, 3207, 3041, 3174, 3208, 3209, 3042, 3176, 3210, 3211,
3044, 3011, 3177, 3212, 3046
594, 3006, 3172, 3207, 3041, 3012, 3178, 3213, 3047, 3176, 3210, 3211, 3044, 3180, 3214, 3215,
3048, 3015, 3181, 3216, 3050
595, 3012, 3178, 3213, 3047, 3016, 3182, 3217, 3051, 3180, 3214, 3215, 3048, 3184, 3218, 3219,
3052, 3019, 3185, 3220, 3054
596, 3016, 3182, 3217, 3051, 3020, 3186, 3221, 3055, 3184, 3218, 3219, 3052, 3188, 3222, 3223,
3056, 3023, 3189, 3224, 3058
597, 3020, 3186, 3221, 3055, 3024, 3190, 3225, 3059, 3188, 3222, 3223, 3056, 3192, 3226, 3227,
3060, 3027, 3193, 3228, 3062
598, 3024, 3190, 3225, 3059, 3028, 3194, 3229, 3063, 3192, 3226, 3227, 3060, 3196, 3230, 3231,
3064, 3031, 3197, 3232, 3066
599, 3028, 3194, 3229, 3063, 3032, 3198, 3233, 3067, 3196, 3230, 3231, 3064, 3200, 3234, 3235,
3068, 3035, 3201, 3236, 3070
600, 3032, 3198, 3233, 3067, 3036, 3202, 3237, 3071, 3200, 3234, 3235, 3068, 3204, 3238, 3239,
3072, 3039, 3205, 3240, 3074
601, 3040, 3206, 3241, 3075, 3041, 3207, 3242, 3076, 3209, 3243, 3244, 3077, 3211, 3245, 3246,
3079, 3046, 3212, 3247, 3081
602, 3041, 3207, 3242, 3076, 3047, 3213, 3248, 3082, 3211, 3245, 3246, 3079, 3215, 3249, 3250,
3083, 3050, 3216, 3251, 3085
603, 3047, 3213, 3248, 3082, 3051, 3217, 3252, 3086, 3215, 3249, 3250, 3083, 3219, 3253, 3254,
3087, 3054, 3220, 3255, 3089
604, 3051, 3217, 3252, 3086, 3055, 3221, 3256, 3090, 3219, 3253, 3254, 3087, 3223, 3257, 3258,
3091, 3058, 3224, 3259, 3093
605, 3055, 3221, 3256, 3090, 3059, 3225, 3260, 3094, 3223, 3257, 3258, 3091, 3227, 3261, 3262,
3095, 3062, 3228, 3263, 3097
606, 3059, 3225, 3260, 3094, 3063, 3229, 3264, 3098, 3227, 3261, 3262, 3095, 3231, 3265, 3266,
3099, 3066, 3232, 3267, 3101
607, 3063, 3229, 3264, 3098, 3067, 3233, 3268, 3102, 3231, 3265, 3266, 3099, 3235, 3269, 3270,
3103, 3070, 3236, 3271, 3105
608, 3067, 3233, 3268, 3102, 3071, 3237, 3272, 3106, 3235, 3269, 3270, 3103, 3239, 3273, 3274,
3107, 3074, 3240, 3275, 3109
609, 3110, 3276, 3277, 3111, 3112, 3278, 3279, 3113, 3280, 3281, 3282, 3115, 3283, 3284, 3285,
3118, 3120, 3286, 3287, 3121
610, 3112, 3278, 3279, 3113, 3122, 3288, 3289, 3123, 3283, 3284, 3285, 3118, 3290, 3291, 3292,
3125, 3127, 3293, 3294, 3128
611, 3122, 3288, 3289, 3123, 3129, 3295, 3296, 3130, 3290, 3291, 3292, 3125, 3297, 3298, 3299,
3132, 3134, 3300, 3301, 3135
612, 3129, 3295, 3296, 3130, 3136, 3302, 3303, 3137, 3297, 3298, 3299, 3132, 3304, 3305, 3306,
3139, 3141, 3307, 3308, 3142
613, 3136, 3302, 3303, 3137, 3143, 3309, 3310, 3144, 3304, 3305, 3306, 3139, 3311, 3312, 3313,
3146, 3148, 3314, 3315, 3149
614, 3143, 3309, 3310, 3144, 3150, 3316, 3317, 3151, 3311, 3312, 3313, 3146, 3318, 3319, 3320,
3153, 3155, 3321, 3322, 3156
615, 3150, 3316, 3317, 3151, 3157, 3323, 3324, 3158, 3318, 3319, 3320, 3153, 3325, 3326, 3327,
3160, 3162, 3328, 3329, 3163
616, 3157, 3323, 3324, 3158, 3164, 3330, 3331, 3165, 3325, 3326, 3327, 3160, 3332, 3333, 3334,
3167, 3169, 3335, 3336, 3170
617, 3111, 3277, 3337, 3171, 3113, 3279, 3338, 3172, 3282, 3339, 3340, 3173, 3285, 3341, 3342,
3175, 3121, 3287, 3343, 3177
618, 3113, 3279, 3338, 3172, 3123, 3289, 3344, 3178, 3285, 3341, 3342, 3175, 3292, 3345, 3346,
3179, 3128, 3294, 3347, 3181
619, 3123, 3289, 3344, 3178, 3130, 3296, 3348, 3182, 3292, 3345, 3346, 3179, 3299, 3349, 3350,
3183, 3135, 3301, 3351, 3185
620, 3130, 3296, 3348, 3182, 3137, 3303, 3352, 3186, 3299, 3349, 3350, 3183, 3306, 3353, 3354,
3187, 3142, 3308, 3355, 3189
621, 3137, 3303, 3352, 3186, 3144, 3310, 3356, 3190, 3306, 3353, 3354, 3187, 3313, 3357, 3358,
3191, 3149, 3315, 3359, 3193
622, 3144, 3310, 3356, 3190, 3151, 3317, 3360, 3194, 3313, 3357, 3358, 3191, 3320, 3361, 3362,
3195, 3156, 3322, 3363, 3197
623, 3151, 3317, 3360, 3194, 3158, 3324, 3364, 3198, 3320, 3361, 3362, 3195, 3327, 3365, 3366,
3199, 3163, 3329, 3367, 3201
624, 3158, 3324, 3364, 3198, 3165, 3331, 3368, 3202, 3327, 3365, 3366, 3199, 3334, 3369, 3370,
3203, 3170, 3336, 3371, 3205
625, 3171, 3337, 3372, 3206, 3172, 3338, 3373, 3207, 3340, 3374, 3375, 3208, 3342, 3376, 3377,
3210, 3177, 3343, 3378, 3212
626, 3172, 3338, 3373, 3207, 3178, 3344, 3379, 3213, 3342, 3376, 3377, 3210, 3346, 3380, 3381,
3214, 3181, 3347, 3382, 3216
627, 3178, 3344, 3379, 3213, 3182, 3348, 3383, 3217, 3346, 3380, 3381, 3214, 3350, 3384, 3385,
3218, 3185, 3351, 3386, 3220
628, 3182, 3348, 3383, 3217, 3186, 3352, 3387, 3221, 3350, 3384, 3385, 3218, 3354, 3388, 3389,
3222, 3189, 3355, 3390, 3224
629, 3186, 3352, 3387, 3221, 3190, 3356, 3391, 3225, 3354, 3388, 3389, 3222, 3358, 3392, 3393,
3226, 3193, 3359, 3394, 3228
630, 3190, 3356, 3391, 3225, 3194, 3360, 3395, 3229, 3358, 3392, 3393, 3226, 3362, 3396, 3397,
3230, 3197, 3363, 3398, 3232
631, 3194, 3360, 3395, 3229, 3198, 3364, 3399, 3233, 3362, 3396, 3397, 3230, 3366, 3400, 3401,
3234, 3201, 3367, 3402, 3236
632, 3198, 3364, 3399, 3233, 3202, 3368, 3403, 3237, 3366, 3400, 3401, 3234, 3370, 3404, 3405,
3238, 3205, 3371, 3406, 3240
633, 3206, 3372, 3407, 3241, 3207, 3373, 3408, 3242, 3375, 3409, 3410, 3243, 3377, 3411, 3412,
3245, 3212, 3378, 3413, 3247
634, 3207, 3373, 3408, 3242, 3213, 3379, 3414, 3248, 3377, 3411, 3412, 3245, 3381, 3415, 3416,
3249, 3216, 3382, 3417, 3251
635, 3213, 3379, 3414, 3248, 3217, 3383, 3418, 3252, 3381, 3415, 3416, 3249, 3385, 3419, 3420,
3253, 3220, 3386, 3421, 3255
636, 3217, 3383, 3418, 3252, 3221, 3387, 3422, 3256, 3385, 3419, 3420, 3253, 3389, 3423, 3424,
3257, 3224, 3390, 3425, 3259
637, 3221, 3387, 3422, 3256, 3225, 3391, 3426, 3260, 3389, 3423, 3424, 3257, 3393, 3427, 3428,
3261, 3228, 3394, 3429, 3263
638, 3225, 3391, 3426, 3260, 3229, 3395, 3430, 3264, 3393, 3427, 3428, 3261, 3397, 3431, 3432,
3265, 3232, 3398, 3433, 3267
639, 3229, 3395, 3430, 3264, 3233, 3399, 3434, 3268, 3397, 3431, 3432, 3265, 3401, 3435, 3436,
3269, 3236, 3402, 3437, 3271
640, 3233, 3399, 3434, 3268, 3237, 3403, 3438, 3272, 3401, 3435, 3436, 3269, 3405, 3439, 3440,
3273, 3240, 3406, 3441, 3275
641, 3276, 3442, 3443, 3277, 3278, 3444, 3445, 3279, 3446, 3447, 3448, 3281, 3449, 3450, 3451,
3284, 3286, 3452, 3453, 3287
642, 3278, 3444, 3445, 3279, 3288, 3454, 3455, 3289, 3449, 3450, 3451, 3284, 3456, 3457, 3458,
3291, 3293, 3459, 3460, 3294
643, 3288, 3454, 3455, 3289, 3295, 3461, 3462, 3296, 3456, 3457, 3458, 3291, 3463, 3464, 3465,
3298, 3300, 3466, 3467, 3301
644, 3295, 3461, 3462, 3296, 3302, 3468, 3469, 3303, 3463, 3464, 3465, 3298, 3470, 3471, 3472,
3305, 3307, 3473, 3474, 3308
645, 3302, 3468, 3469, 3303, 3309, 3475, 3476, 3310, 3470, 3471, 3472, 3305, 3477, 3478, 3479,
3312, 3314, 3480, 3481, 3315
646, 3309, 3475, 3476, 3310, 3316, 3482, 3483, 3317, 3477, 3478, 3479, 3312, 3484, 3485, 3486,
3319, 3321, 3487, 3488, 3322
647, 3316, 3482, 3483, 3317, 3323, 3489, 3490, 3324, 3484, 3485, 3486, 3319, 3491, 3492, 3493,
3326, 3328, 3494, 3495, 3329
648, 3323, 3489, 3490, 3324, 3330, 3496, 3497, 3331, 3491, 3492, 3493, 3326, 3498, 3499, 3500,
3333, 3335, 3501, 3502, 3336
649, 3277, 3443, 3503, 3337, 3279, 3445, 3504, 3338, 3448, 3505, 3506, 3339, 3451, 3507, 3508,
3341, 3287, 3453, 3509, 3343
650, 3279, 3445, 3504, 3338, 3289, 3455, 3510, 3344, 3451, 3507, 3508, 3341, 3458, 3511, 3512,
3345, 3294, 3460, 3513, 3347
651, 3289, 3455, 3510, 3344, 3296, 3462, 3514, 3348, 3458, 3511, 3512, 3345, 3465, 3515, 3516,
3349, 3301, 3467, 3517, 3351
652, 3296, 3462, 3514, 3348, 3303, 3469, 3518, 3352, 3465, 3515, 3516, 3349, 3472, 3519, 3520,
3353, 3308, 3474, 3521, 3355
653, 3303, 3469, 3518, 3352, 3310, 3476, 3522, 3356, 3472, 3519, 3520, 3353, 3479, 3523, 3524,
3357, 3315, 3481, 3525, 3359
654, 3310, 3476, 3522, 3356, 3317, 3483, 3526, 3360, 3479, 3523, 3524, 3357, 3486, 3527, 3528,
3361, 3322, 3488, 3529, 3363
655, 3317, 3483, 3526, 3360, 3324, 3490, 3530, 3364, 3486, 3527, 3528, 3361, 3493, 3531, 3532,
3365, 3329, 3495, 3533, 3367
656, 3324, 3490, 3530, 3364, 3331, 3497, 3534, 3368, 3493, 3531, 3532, 3365, 3500, 3535, 3536,
3369, 3336, 3502, 3537, 3371
657, 3337, 3503, 3538, 3372, 3338, 3504, 3539, 3373, 3506, 3540, 3541, 3374, 3508, 3542, 3543,
3376, 3343, 3509, 3544, 3378
658, 3338, 3504, 3539, 3373, 3344, 3510, 3545, 3379, 3508, 3542, 3543, 3376, 3512, 3546, 3547,
3380, 3347, 3513, 3548, 3382
659, 3344, 3510, 3545, 3379, 3348, 3514, 3549, 3383, 3512, 3546, 3547, 3380, 3516, 3550, 3551,
3384, 3351, 3517, 3552, 3386
660, 3348, 3514, 3549, 3383, 3352, 3518, 3553, 3387, 3516, 3550, 3551, 3384, 3520, 3554, 3555,
3388, 3355, 3521, 3556, 3390
661, 3352, 3518, 3553, 3387, 3356, 3522, 3557, 3391, 3520, 3554, 3555, 3388, 3524, 3558, 3559,
3392, 3359, 3525, 3560, 3394
662, 3356, 3522, 3557, 3391, 3360, 3526, 3561, 3395, 3524, 3558, 3559, 3392, 3528, 3562, 3563,
3396, 3363, 3529, 3564, 3398
663, 3360, 3526, 3561, 3395, 3364, 3530, 3565, 3399, 3528, 3562, 3563, 3396, 3532, 3566, 3567,
3400, 3367, 3533, 3568, 3402
664, 3364, 3530, 3565, 3399, 3368, 3534, 3569, 3403, 3532, 3566, 3567, 3400, 3536, 3570, 3571,
3404, 3371, 3537, 3572, 3406
665, 3372, 3538, 3573, 3407, 3373, 3539, 3574, 3408, 3541, 3575, 3576, 3409, 3543, 3577, 3578,
3411, 3378, 3544, 3579, 3413
666, 3373, 3539, 3574, 3408, 3379, 3545, 3580, 3414, 3543, 3577, 3578, 3411, 3547, 3581, 3582,
3415, 3382, 3548, 3583, 3417
667, 3379, 3545, 3580, 3414, 3383, 3549, 3584, 3418, 3547, 3581, 3582, 3415, 3551, 3585, 3586,
3419, 3386, 3552, 3587, 3421
668, 3383, 3549, 3584, 3418, 3387, 3553, 3588, 3422, 3551, 3585, 3586, 3419, 3555, 3589, 3590,
3423, 3390, 3556, 3591, 3425
669, 3387, 3553, 3588, 3422, 3391, 3557, 3592, 3426, 3555, 3589, 3590, 3423, 3559, 3593, 3594,
3427, 3394, 3560, 3595, 3429
670, 3391, 3557, 3592, 3426, 3395, 3561, 3596, 3430, 3559, 3593, 3594, 3427, 3563, 3597, 3598,
3431, 3398, 3564, 3599, 3433
671, 3395, 3561, 3596, 3430, 3399, 3565, 3600, 3434, 3563, 3597, 3598, 3431, 3567, 3601, 3602,
3435, 3402, 3568, 3603, 3437
672, 3399, 3565, 3600, 3434, 3403, 3569, 3604, 3438, 3567, 3601, 3602, 3435, 3571, 3605, 3606,
3439, 3406, 3572, 3607, 3441
673, 3442, 3608, 3609, 3443, 3444, 3610, 3611, 3445, 3612, 3613, 3614, 3447, 3615, 3616, 3617,
3450, 3452, 3618, 3619, 3453
674, 3444, 3610, 3611, 3445, 3454, 3620, 3621, 3455, 3615, 3616, 3617, 3450, 3622, 3623, 3624,
3457, 3459, 3625, 3626, 3460
675, 3454, 3620, 3621, 3455, 3461, 3627, 3628, 3462, 3622, 3623, 3624, 3457, 3629, 3630, 3631,
3464, 3466, 3632, 3633, 3467
676, 3461, 3627, 3628, 3462, 3468, 3634, 3635, 3469, 3629, 3630, 3631, 3464, 3636, 3637, 3638,
3471, 3473, 3639, 3640, 3474
677, 3468, 3634, 3635, 3469, 3475, 3641, 3642, 3476, 3636, 3637, 3638, 3471, 3643, 3644, 3645,
3478, 3480, 3646, 3647, 3481
678, 3475, 3641, 3642, 3476, 3482, 3648, 3649, 3483, 3643, 3644, 3645, 3478, 3650, 3651, 3652,
3485, 3487, 3653, 3654, 3488
679, 3482, 3648, 3649, 3483, 3489, 3655, 3656, 3490, 3650, 3651, 3652, 3485, 3657, 3658, 3659,
3492, 3494, 3660, 3661, 3495
680, 3489, 3655, 3656, 3490, 3496, 3662, 3663, 3497, 3657, 3658, 3659, 3492, 3664, 3665, 3666,
3499, 3501, 3667, 3668, 3502
681, 3443, 3609, 3669, 3503, 3445, 3611, 3670, 3504, 3614, 3671, 3672, 3505, 3617, 3673, 3674,
3507, 3453, 3619, 3675, 3509
682, 3445, 3611, 3670, 3504, 3455, 3621, 3676, 3510, 3617, 3673, 3674, 3507, 3624, 3677, 3678,
3511, 3460, 3626, 3679, 3513
683, 3455, 3621, 3676, 3510, 3462, 3628, 3680, 3514, 3624, 3677, 3678, 3511, 3631, 3681, 3682,
3515, 3467, 3633, 3683, 3517
684, 3462, 3628, 3680, 3514, 3469, 3635, 3684, 3518, 3631, 3681, 3682, 3515, 3638, 3685, 3686,
3519, 3474, 3640, 3687, 3521
685, 3469, 3635, 3684, 3518, 3476, 3642, 3688, 3522, 3638, 3685, 3686, 3519, 3645, 3689, 3690,
3523, 3481, 3647, 3691, 3525
686, 3476, 3642, 3688, 3522, 3483, 3649, 3692, 3526, 3645, 3689, 3690, 3523, 3652, 3693, 3694,
3527, 3488, 3654, 3695, 3529
687, 3483, 3649, 3692, 3526, 3490, 3656, 3696, 3530, 3652, 3693, 3694, 3527, 3659, 3697, 3698,
3531, 3495, 3661, 3699, 3533
688, 3490, 3656, 3696, 3530, 3497, 3663, 3700, 3534, 3659, 3697, 3698, 3531, 3666, 3701, 3702,
3535, 3502, 3668, 3703, 3537
689, 3503, 3669, 3704, 3538, 3504, 3670, 3705, 3539, 3672, 3706, 3707, 3540, 3674, 3708, 3709,
3542, 3509, 3675, 3710, 3544
690, 3504, 3670, 3705, 3539, 3510, 3676, 3711, 3545, 3674, 3708, 3709, 3542, 3678, 3712, 3713,
3546, 3513, 3679, 3714, 3548
691, 3510, 3676, 3711, 3545, 3514, 3680, 3715, 3549, 3678, 3712, 3713, 3546, 3682, 3716, 3717,
3550, 3517, 3683, 3718, 3552
692, 3514, 3680, 3715, 3549, 3518, 3684, 3719, 3553, 3682, 3716, 3717, 3550, 3686, 3720, 3721,
3554, 3521, 3687, 3722, 3556
693, 3518, 3684, 3719, 3553, 3522, 3688, 3723, 3557, 3686, 3720, 3721, 3554, 3690, 3724, 3725,
3558, 3525, 3691, 3726, 3560
694, 3522, 3688, 3723, 3557, 3526, 3692, 3727, 3561, 3690, 3724, 3725, 3558, 3694, 3728, 3729,
3562, 3529, 3695, 3730, 3564
695, 3526, 3692, 3727, 3561, 3530, 3696, 3731, 3565, 3694, 3728, 3729, 3562, 3698, 3732, 3733,
3566, 3533, 3699, 3734, 3568
696, 3530, 3696, 3731, 3565, 3534, 3700, 3735, 3569, 3698, 3732, 3733, 3566, 3702, 3736, 3737,
3570, 3537, 3703, 3738, 3572
697, 3538, 3704, 3739, 3573, 3539, 3705, 3740, 3574, 3707, 3741, 3742, 3575, 3709, 3743, 3744,
3577, 3544, 3710, 3745, 3579
698, 3539, 3705, 3740, 3574, 3545, 3711, 3746, 3580, 3709, 3743, 3744, 3577, 3713, 3747, 3748,
3581, 3548, 3714, 3749, 3583
699, 3545, 3711, 3746, 3580, 3549, 3715, 3750, 3584, 3713, 3747, 3748, 3581, 3717, 3751, 3752,
3585, 3552, 3718, 3753, 3587
700, 3549, 3715, 3750, 3584, 3553, 3719, 3754, 3588, 3717, 3751, 3752, 3585, 3721, 3755, 3756,
3589, 3556, 3722, 3757, 3591
701, 3553, 3719, 3754, 3588, 3557, 3723, 3758, 3592, 3721, 3755, 3756, 3589, 3725, 3759, 3760,
3593, 3560, 3726, 3761, 3595
702, 3557, 3723, 3758, 3592, 3561, 3727, 3762, 3596, 3725, 3759, 3760, 3593, 3729, 3763, 3764,
3597, 3564, 3730, 3765, 3599
703, 3561, 3727, 3762, 3596, 3565, 3731, 3766, 3600, 3729, 3763, 3764, 3597, 3733, 3767, 3768,
3601, 3568, 3734, 3769, 3603
704, 3565, 3731, 3766, 3600, 3569, 3735, 3770, 3604, 3733, 3767, 3768, 3601, 3737, 3771, 3772,
3605, 3572, 3738, 3773, 3607
705, 3608, 3774, 3775, 3609, 3610, 3776, 3777, 3611, 3778, 3779, 3780, 3613, 3781, 3782, 3783,
3616, 3618, 3784, 3785, 3619
706, 3610, 3776, 3777, 3611, 3620, 3786, 3787, 3621, 3781, 3782, 3783, 3616, 3788, 3789, 3790,
3623, 3625, 3791, 3792, 3626
707, 3620, 3786, 3787, 3621, 3627, 3793, 3794, 3628, 3788, 3789, 3790, 3623, 3795, 3796, 3797,
3630, 3632, 3798, 3799, 3633
708, 3627, 3793, 3794, 3628, 3634, 3800, 3801, 3635, 3795, 3796, 3797, 3630, 3802, 3803, 3804,
3637, 3639, 3805, 3806, 3640
709, 3634, 3800, 3801, 3635, 3641, 3807, 3808, 3642, 3802, 3803, 3804, 3637, 3809, 3810, 3811,
3644, 3646, 3812, 3813, 3647
710, 3641, 3807, 3808, 3642, 3648, 3814, 3815, 3649, 3809, 3810, 3811, 3644, 3816, 3817, 3818,
3651, 3653, 3819, 3820, 3654
711, 3648, 3814, 3815, 3649, 3655, 3821, 3822, 3656, 3816, 3817, 3818, 3651, 3823, 3824, 3825,
3658, 3660, 3826, 3827, 3661
712, 3655, 3821, 3822, 3656, 3662, 3828, 3829, 3663, 3823, 3824, 3825, 3658, 3830, 3831, 3832,
3665, 3667, 3833, 3834, 3668
713, 3609, 3775, 3835, 3669, 3611, 3777, 3836, 3670, 3780, 3837, 3838, 3671, 3783, 3839, 3840,
3673, 3619, 3785, 3841, 3675
714, 3611, 3777, 3836, 3670, 3621, 3787, 3842, 3676, 3783, 3839, 3840, 3673, 3790, 3843, 3844,
3677, 3626, 3792, 3845, 3679
715, 3621, 3787, 3842, 3676, 3628, 3794, 3846, 3680, 3790, 3843, 3844, 3677, 3797, 3847, 3848,
3681, 3633, 3799, 3849, 3683
716, 3628, 3794, 3846, 3680, 3635, 3801, 3850, 3684, 3797, 3847, 3848, 3681, 3804, 3851, 3852,
3685, 3640, 3806, 3853, 3687
717, 3635, 3801, 3850, 3684, 3642, 3808, 3854, 3688, 3804, 3851, 3852, 3685, 3811, 3855, 3856,
3689, 3647, 3813, 3857, 3691
718, 3642, 3808, 3854, 3688, 3649, 3815, 3858, 3692, 3811, 3855, 3856, 3689, 3818, 3859, 3860,
3693, 3654, 3820, 3861, 3695
719, 3649, 3815, 3858, 3692, 3656, 3822, 3862, 3696, 3818, 3859, 3860, 3693, 3825, 3863, 3864,
3697, 3661, 3827, 3865, 3699
720, 3656, 3822, 3862, 3696, 3663, 3829, 3866, 3700, 3825, 3863, 3864, 3697, 3832, 3867, 3868,
3701, 3668, 3834, 3869, 3703
721, 3669, 3835, 3870, 3704, 3670, 3836, 3871, 3705, 3838, 3872, 3873, 3706, 3840, 3874, 3875,
3708, 3675, 3841, 3876, 3710
722, 3670, 3836, 3871, 3705, 3676, 3842, 3877, 3711, 3840, 3874, 3875, 3708, 3844, 3878, 3879,
3712, 3679, 3845, 3880, 3714
723, 3676, 3842, 3877, 3711, 3680, 3846, 3881, 3715, 3844, 3878, 3879, 3712, 3848, 3882, 3883,
3716, 3683, 3849, 3884, 3718
724, 3680, 3846, 3881, 3715, 3684, 3850, 3885, 3719, 3848, 3882, 3883, 3716, 3852, 3886, 3887,
3720, 3687, 3853, 3888, 3722
725, 3684, 3850, 3885, 3719, 3688, 3854, 3889, 3723, 3852, 3886, 3887, 3720, 3856, 3890, 3891,
3724, 3691, 3857, 3892, 3726
726, 3688, 3854, 3889, 3723, 3692, 3858, 3893, 3727, 3856, 3890, 3891, 3724, 3860, 3894, 3895,
3728, 3695, 3861, 3896, 3730
727, 3692, 3858, 3893, 3727, 3696, 3862, 3897, 3731, 3860, 3894, 3895, 3728, 3864, 3898, 3899,
3732, 3699, 3865, 3900, 3734
728, 3696, 3862, 3897, 3731, 3700, 3866, 3901, 3735, 3864, 3898, 3899, 3732, 3868, 3902, 3903,
3736, 3703, 3869, 3904, 3738
729, 3704, 3870, 3905, 3739, 3705, 3871, 3906, 3740, 3873, 3907, 3908, 3741, 3875, 3909, 3910,
3743, 3710, 3876, 3911, 3745
730, 3705, 3871, 3906, 3740, 3711, 3877, 3912, 3746, 3875, 3909, 3910, 3743, 3879, 3913, 3914,
3747, 3714, 3880, 3915, 3749
731, 3711, 3877, 3912, 3746, 3715, 3881, 3916, 3750, 3879, 3913, 3914, 3747, 3883, 3917, 3918,
3751, 3718, 3884, 3919, 3753
732, 3715, 3881, 3916, 3750, 3719, 3885, 3920, 3754, 3883, 3917, 3918, 3751, 3887, 3921, 3922,
3755, 3722, 3888, 3923, 3757
733, 3719, 3885, 3920, 3754, 3723, 3889, 3924, 3758, 3887, 3921, 3922, 3755, 3891, 3925, 3926,
3759, 3726, 3892, 3927, 3761
734, 3723, 3889, 3924, 3758, 3727, 3893, 3928, 3762, 3891, 3925, 3926, 3759, 3895, 3929, 3930,
3763, 3730, 3896, 3931, 3765
735, 3727, 3893, 3928, 3762, 3731, 3897, 3932, 3766, 3895, 3929, 3930, 3763, 3899, 3933, 3934,
3767, 3734, 3900, 3935, 3769
736, 3731, 3897, 3932, 3766, 3735, 3901, 3936, 3770, 3899, 3933, 3934, 3767, 3903, 3937, 3938,
3771, 3738, 3904, 3939, 3773
737, 3774, 3940, 3941, 3775, 3776, 3942, 3943, 3777, 3944, 3945, 3946, 3779, 3947, 3948, 3949,
3782, 3784, 3950, 3951, 3785
738, 3776, 3942, 3943, 3777, 3786, 3952, 3953, 3787, 3947, 3948, 3949, 3782, 3954, 3955, 3956,
3789, 3791, 3957, 3958, 3792
739, 3786, 3952, 3953, 3787, 3793, 3959, 3960, 3794, 3954, 3955, 3956, 3789, 3961, 3962, 3963,
3796, 3798, 3964, 3965, 3799
740, 3793, 3959, 3960, 3794, 3800, 3966, 3967, 3801, 3961, 3962, 3963, 3796, 3968, 3969, 3970,
3803, 3805, 3971, 3972, 3806
741, 3800, 3966, 3967, 3801, 3807, 3973, 3974, 3808, 3968, 3969, 3970, 3803, 3975, 3976, 3977,
3810, 3812, 3978, 3979, 3813
742, 3807, 3973, 3974, 3808, 3814, 3980, 3981, 3815, 3975, 3976, 3977, 3810, 3982, 3983, 3984,
3817, 3819, 3985, 3986, 3820
743, 3814, 3980, 3981, 3815, 3821, 3987, 3988, 3822, 3982, 3983, 3984, 3817, 3989, 3990, 3991,
3824, 3826, 3992, 3993, 3827
744, 3821, 3987, 3988, 3822, 3828, 3994, 3995, 3829, 3989, 3990, 3991, 3824, 3996, 3997, 3998,
3831, 3833, 3999, 4000, 3834
745, 3775, 3941, 4001, 3835, 3777, 3943, 4002, 3836, 3946, 4003, 4004, 3837, 3949, 4005, 4006,
3839, 3785, 3951, 4007, 3841
746, 3777, 3943, 4002, 3836, 3787, 3953, 4008, 3842, 3949, 4005, 4006, 3839, 3956, 4009, 4010,
3843, 3792, 3958, 4011, 3845
747, 3787, 3953, 4008, 3842, 3794, 3960, 4012, 3846, 3956, 4009, 4010, 3843, 3963, 4013, 4014,
3847, 3799, 3965, 4015, 3849
748, 3794, 3960, 4012, 3846, 3801, 3967, 4016, 3850, 3963, 4013, 4014, 3847, 3970, 4017, 4018,
3851, 3806, 3972, 4019, 3853
749, 3801, 3967, 4016, 3850, 3808, 3974, 4020, 3854, 3970, 4017, 4018, 3851, 3977, 4021, 4022,
3855, 3813, 3979, 4023, 3857
750, 3808, 3974, 4020, 3854, 3815, 3981, 4024, 3858, 3977, 4021, 4022, 3855, 3984, 4025, 4026,
3859, 3820, 3986, 4027, 3861
751, 3815, 3981, 4024, 3858, 3822, 3988, 4028, 3862, 3984, 4025, 4026, 3859, 3991, 4029, 4030,
3863, 3827, 3993, 4031, 3865
752, 3822, 3988, 4028, 3862, 3829, 3995, 4032, 3866, 3991, 4029, 4030, 3863, 3998, 4033, 4034,
3867, 3834, 4000, 4035, 3869
753, 3835, 4001, 4036, 3870, 3836, 4002, 4037, 3871, 4004, 4038, 4039, 3872, 4006, 4040, 4041,
3874, 3841, 4007, 4042, 3876
754, 3836, 4002, 4037, 3871, 3842, 4008, 4043, 3877, 4006, 4040, 4041, 3874, 4010, 4044, 4045,
3878, 3845, 4011, 4046, 3880
755, 3842, 4008, 4043, 3877, 3846, 4012, 4047, 3881, 4010, 4044, 4045, 3878, 4014, 4048, 4049,
3882, 3849, 4015, 4050, 3884
756, 3846, 4012, 4047, 3881, 3850, 4016, 4051, 3885, 4014, 4048, 4049, 3882, 4018, 4052, 4053,
3886, 3853, 4019, 4054, 3888
757, 3850, 4016, 4051, 3885, 3854, 4020, 4055, 3889, 4018, 4052, 4053, 3886, 4022, 4056, 4057,
3890, 3857, 4023, 4058, 3892
758, 3854, 4020, 4055, 3889, 3858, 4024, 4059, 3893, 4022, 4056, 4057, 3890, 4026, 4060, 4061,
3894, 3861, 4027, 4062, 3896
759, 3858, 4024, 4059, 3893, 3862, 4028, 4063, 3897, 4026, 4060, 4061, 3894, 4030, 4064, 4065,
3898, 3865, 4031, 4066, 3900
760, 3862, 4028, 4063, 3897, 3866, 4032, 4067, 3901, 4030, 4064, 4065, 3898, 4034, 4068, 4069,
3902, 3869, 4035, 4070, 3904
761, 3870, 4036, 4071, 3905, 3871, 4037, 4072, 3906, 4039, 4073, 4074, 3907, 4041, 4075, 4076,
3909, 3876, 4042, 4077, 3911
762, 3871, 4037, 4072, 3906, 3877, 4043, 4078, 3912, 4041, 4075, 4076, 3909, 4045, 4079, 4080,
3913, 3880, 4046, 4081, 3915
763, 3877, 4043, 4078, 3912, 3881, 4047, 4082, 3916, 4045, 4079, 4080, 3913, 4049, 4083, 4084,
3917, 3884, 4050, 4085, 3919
764, 3881, 4047, 4082, 3916, 3885, 4051, 4086, 3920, 4049, 4083, 4084, 3917, 4053, 4087, 4088,
3921, 3888, 4054, 4089, 3923
765, 3885, 4051, 4086, 3920, 3889, 4055, 4090, 3924, 4053, 4087, 4088, 3921, 4057, 4091, 4092,
3925, 3892, 4058, 4093, 3927
766, 3889, 4055, 4090, 3924, 3893, 4059, 4094, 3928, 4057, 4091, 4092, 3925, 4061, 4095, 4096,
3929, 3896, 4062, 4097, 3931
767, 3893, 4059, 4094, 3928, 3897, 4063, 4098, 3932, 4061, 4095, 4096, 3929, 4065, 4099, 4100,
3933, 3900, 4066, 4101, 3935
768, 3897, 4063, 4098, 3932, 3901, 4067, 4102, 3936, 4065, 4099, 4100, 3933, 4069, 4103, 4104,
3937, 3904, 4070, 4105, 3939
769, 3940, 4106, 4107, 3941, 3942, 4108, 4109, 3943, 4110, 4111, 4112, 3945, 4113, 4114, 4115,
3948, 3950, 4116, 4117, 3951
770, 3942, 4108, 4109, 3943, 3952, 4118, 4119, 3953, 4113, 4114, 4115, 3948, 4120, 4121, 4122,
3955, 3957, 4123, 4124, 3958
771, 3952, 4118, 4119, 3953, 3959, 4125, 4126, 3960, 4120, 4121, 4122, 3955, 4127, 4128, 4129,
3962, 3964, 4130, 4131, 3965
772, 3959, 4125, 4126, 3960, 3966, 4132, 4133, 3967, 4127, 4128, 4129, 3962, 4134, 4135, 4136,
3969, 3971, 4137, 4138, 3972
773, 3966, 4132, 4133, 3967, 3973, 4139, 4140, 3974, 4134, 4135, 4136, 3969, 4141, 4142, 4143,
3976, 3978, 4144, 4145, 3979
774, 3973, 4139, 4140, 3974, 3980, 4146, 4147, 3981, 4141, 4142, 4143, 3976, 4148, 4149, 4150,
3983, 3985, 4151, 4152, 3986
775, 3980, 4146, 4147, 3981, 3987, 4153, 4154, 3988, 4148, 4149, 4150, 3983, 4155, 4156, 4157,
3990, 3992, 4158, 4159, 3993
776, 3987, 4153, 4154, 3988, 3994, 4160, 4161, 3995, 4155, 4156, 4157, 3990, 4162, 4163, 4164,
3997, 3999, 4165, 4166, 4000
777, 3941, 4107, 4167, 4001, 3943, 4109, 4168, 4002, 4112, 4169, 4170, 4003, 4115, 4171, 4172,
4005, 3951, 4117, 4173, 4007
778, 3943, 4109, 4168, 4002, 3953, 4119, 4174, 4008, 4115, 4171, 4172, 4005, 4122, 4175, 4176,
4009, 3958, 4124, 4177, 4011
779, 3953, 4119, 4174, 4008, 3960, 4126, 4178, 4012, 4122, 4175, 4176, 4009, 4129, 4179, 4180,
4013, 3965, 4131, 4181, 4015
780, 3960, 4126, 4178, 4012, 3967, 4133, 4182, 4016, 4129, 4179, 4180, 4013, 4136, 4183, 4184,
4017, 3972, 4138, 4185, 4019
781, 3967, 4133, 4182, 4016, 3974, 4140, 4186, 4020, 4136, 4183, 4184, 4017, 4143, 4187, 4188,
4021, 3979, 4145, 4189, 4023
782, 3974, 4140, 4186, 4020, 3981, 4147, 4190, 4024, 4143, 4187, 4188, 4021, 4150, 4191, 4192,
4025, 3986, 4152, 4193, 4027
783, 3981, 4147, 4190, 4024, 3988, 4154, 4194, 4028, 4150, 4191, 4192, 4025, 4157, 4195, 4196,
4029, 3993, 4159, 4197, 4031
784, 3988, 4154, 4194, 4028, 3995, 4161, 4198, 4032, 4157, 4195, 4196, 4029, 4164, 4199, 4200,
4033, 4000, 4166, 4201, 4035
785, 4001, 4167, 4202, 4036, 4002, 4168, 4203, 4037, 4170, 4204, 4205, 4038, 4172, 4206, 4207,
4040, 4007, 4173, 4208, 4042
786, 4002, 4168, 4203, 4037, 4008, 4174, 4209, 4043, 4172, 4206, 4207, 4040, 4176, 4210, 4211,
4044, 4011, 4177, 4212, 4046
787, 4008, 4174, 4209, 4043, 4012, 4178, 4213, 4047, 4176, 4210, 4211, 4044, 4180, 4214, 4215,
4048, 4015, 4181, 4216, 4050
788, 4012, 4178, 4213, 4047, 4016, 4182, 4217, 4051, 4180, 4214, 4215, 4048, 4184, 4218, 4219,
4052, 4019, 4185, 4220, 4054
789, 4016, 4182, 4217, 4051, 4020, 4186, 4221, 4055, 4184, 4218, 4219, 4052, 4188, 4222, 4223,
4056, 4023, 4189, 4224, 4058
790, 4020, 4186, 4221, 4055, 4024, 4190, 4225, 4059, 4188, 4222, 4223, 4056, 4192, 4226, 4227,
4060, 4027, 4193, 4228, 4062
791, 4024, 4190, 4225, 4059, 4028, 4194, 4229, 4063, 4192, 4226, 4227, 4060, 4196, 4230, 4231,
4064, 4031, 4197, 4232, 4066
792, 4028, 4194, 4229, 4063, 4032, 4198, 4233, 4067, 4196, 4230, 4231, 4064, 4200, 4234, 4235,
4068, 4035, 4201, 4236, 4070
793, 4036, 4202, 4237, 4071, 4037, 4203, 4238, 4072, 4205, 4239, 4240, 4073, 4207, 4241, 4242,
4075, 4042, 4208, 4243, 4077
794, 4037, 4203, 4238, 4072, 4043, 4209, 4244, 4078, 4207, 4241, 4242, 4075, 4211, 4245, 4246,
4079, 4046, 4212, 4247, 4081
795, 4043, 4209, 4244, 4078, 4047, 4213, 4248, 4082, 4211, 4245, 4246, 4079, 4215, 4249, 4250,
4083, 4050, 4216, 4251, 4085
796, 4047, 4213, 4248, 4082, 4051, 4217, 4252, 4086, 4215, 4249, 4250, 4083, 4219, 4253, 4254,
4087, 4054, 4220, 4255, 4089
797, 4051, 4217, 4252, 4086, 4055, 4221, 4256, 4090, 4219, 4253, 4254, 4087, 4223, 4257, 4258,
4091, 4058, 4224, 4259, 4093
798, 4055, 4221, 4256, 4090, 4059, 4225, 4260, 4094, 4223, 4257, 4258, 4091, 4227, 4261, 4262,
4095, 4062, 4228, 4263, 4097
799, 4059, 4225, 4260, 4094, 4063, 4229, 4264, 4098, 4227, 4261, 4262, 4095, 4231, 4265, 4266,
4099, 4066, 4232, 4267, 4101
800, 4063, 4229, 4264, 4098, 4067, 4233, 4268, 4102, 4231, 4265, 4266, 4099, 4235, 4269, 4270,
4103, 4070, 4236, 4271, 4105
801, 4106, 4272, 4273, 4107, 4108, 4274, 4275, 4109, 4276, 4277, 4278, 4111, 4279, 4280, 4281,
4114, 4116, 4282, 4283, 4117
802, 4108, 4274, 4275, 4109, 4118, 4284, 4285, 4119, 4279, 4280, 4281, 4114, 4286, 4287, 4288,
4121, 4123, 4289, 4290, 4124
803, 4118, 4284, 4285, 4119, 4125, 4291, 4292, 4126, 4286, 4287, 4288, 4121, 4293, 4294, 4295,
4128, 4130, 4296, 4297, 4131
804, 4125, 4291, 4292, 4126, 4132, 4298, 4299, 4133, 4293, 4294, 4295, 4128, 4300, 4301, 4302,
4135, 4137, 4303, 4304, 4138
805, 4132, 4298, 4299, 4133, 4139, 4305, 4306, 4140, 4300, 4301, 4302, 4135, 4307, 4308, 4309,
4142, 4144, 4310, 4311, 4145
806, 4139, 4305, 4306, 4140, 4146, 4312, 4313, 4147, 4307, 4308, 4309, 4142, 4314, 4315, 4316,
4149, 4151, 4317, 4318, 4152
807, 4146, 4312, 4313, 4147, 4153, 4319, 4320, 4154, 4314, 4315, 4316, 4149, 4321, 4322, 4323,
4156, 4158, 4324, 4325, 4159
808, 4153, 4319, 4320, 4154, 4160, 4326, 4327, 4161, 4321, 4322, 4323, 4156, 4328, 4329, 4330,
4163, 4165, 4331, 4332, 4166
809, 4107, 4273, 4333, 4167, 4109, 4275, 4334, 4168, 4278, 4335, 4336, 4169, 4281, 4337, 4338,
4171, 4117, 4283, 4339, 4173
810, 4109, 4275, 4334, 4168, 4119, 4285, 4340, 4174, 4281, 4337, 4338, 4171, 4288, 4341, 4342,
4175, 4124, 4290, 4343, 4177
811, 4119, 4285, 4340, 4174, 4126, 4292, 4344, 4178, 4288, 4341, 4342, 4175, 4295, 4345, 4346,
4179, 4131, 4297, 4347, 4181
812, 4126, 4292, 4344, 4178, 4133, 4299, 4348, 4182, 4295, 4345, 4346, 4179, 4302, 4349, 4350,
4183, 4138, 4304, 4351, 4185
813, 4133, 4299, 4348, 4182, 4140, 4306, 4352, 4186, 4302, 4349, 4350, 4183, 4309, 4353, 4354,
4187, 4145, 4311, 4355, 4189
814, 4140, 4306, 4352, 4186, 4147, 4313, 4356, 4190, 4309, 4353, 4354, 4187, 4316, 4357, 4358,
4191, 4152, 4318, 4359, 4193
815, 4147, 4313, 4356, 4190, 4154, 4320, 4360, 4194, 4316, 4357, 4358, 4191, 4323, 4361, 4362,
4195, 4159, 4325, 4363, 4197
816, 4154, 4320, 4360, 4194, 4161, 4327, 4364, 4198, 4323, 4361, 4362, 4195, 4330, 4365, 4366,
4199, 4166, 4332, 4367, 4201
817, 4167, 4333, 4368, 4202, 4168, 4334, 4369, 4203, 4336, 4370, 4371, 4204, 4338, 4372, 4373,
4206, 4173, 4339, 4374, 4208
818, 4168, 4334, 4369, 4203, 4174, 4340, 4375, 4209, 4338, 4372, 4373, 4206, 4342, 4376, 4377,
4210, 4177, 4343, 4378, 4212
819, 4174, 4340, 4375, 4209, 4178, 4344, 4379, 4213, 4342, 4376, 4377, 4210, 4346, 4380, 4381,
4214, 4181, 4347, 4382, 4216
820, 4178, 4344, 4379, 4213, 4182, 4348, 4383, 4217, 4346, 4380, 4381, 4214, 4350, 4384, 4385,
4218, 4185, 4351, 4386, 4220
821, 4182, 4348, 4383, 4217, 4186, 4352, 4387, 4221, 4350, 4384, 4385, 4218, 4354, 4388, 4389,
4222, 4189, 4355, 4390, 4224
822, 4186, 4352, 4387, 4221, 4190, 4356, 4391, 4225, 4354, 4388, 4389, 4222, 4358, 4392, 4393,
4226, 4193, 4359, 4394, 4228
823, 4190, 4356, 4391, 4225, 4194, 4360, 4395, 4229, 4358, 4392, 4393, 4226, 4362, 4396, 4397,
4230, 4197, 4363, 4398, 4232
824, 4194, 4360, 4395, 4229, 4198, 4364, 4399, 4233, 4362, 4396, 4397, 4230, 4366, 4400, 4401,
4234, 4201, 4367, 4402, 4236
825, 4202, 4368, 4403, 4237, 4203, 4369, 4404, 4238, 4371, 4405, 4406, 4239, 4373, 4407, 4408,
4241, 4208, 4374, 4409, 4243
826, 4203, 4369, 4404, 4238, 4209, 4375, 4410, 4244, 4373, 4407, 4408, 4241, 4377, 4411, 4412,
4245, 4212, 4378, 4413, 4247
827, 4209, 4375, 4410, 4244, 4213, 4379, 4414, 4248, 4377, 4411, 4412, 4245, 4381, 4415, 4416,
4249, 4216, 4382, 4417, 4251
828, 4213, 4379, 4414, 4248, 4217, 4383, 4418, 4252, 4381, 4415, 4416, 4249, 4385, 4419, 4420,
4253, 4220, 4386, 4421, 4255
829, 4217, 4383, 4418, 4252, 4221, 4387, 4422, 4256, 4385, 4419, 4420, 4253, 4389, 4423, 4424,
4257, 4224, 4390, 4425, 4259
830, 4221, 4387, 4422, 4256, 4225, 4391, 4426, 4260, 4389, 4423, 4424, 4257, 4393, 4427, 4428,
4261, 4228, 4394, 4429, 4263
831, 4225, 4391, 4426, 4260, 4229, 4395, 4430, 4264, 4393, 4427, 4428, 4261, 4397, 4431, 4432,
4265, 4232, 4398, 4433, 4267
832, 4229, 4395, 4430, 4264, 4233, 4399, 4434, 4268, 4397, 4431, 4432, 4265, 4401, 4435, 4436,
4269, 4236, 4402, 4437, 4271
833, 4272, 4438, 4439, 4273, 4274, 4440, 4441, 4275, 4442, 4443, 4444, 4277, 4445, 4446, 4447,
4280, 4282, 4448, 4449, 4283
834, 4274, 4440, 4441, 4275, 4284, 4450, 4451, 4285, 4445, 4446, 4447, 4280, 4452, 4453, 4454,
4287, 4289, 4455, 4456, 4290
835, 4284, 4450, 4451, 4285, 4291, 4457, 4458, 4292, 4452, 4453, 4454, 4287, 4459, 4460, 4461,
4294, 4296, 4462, 4463, 4297
836, 4291, 4457, 4458, 4292, 4298, 4464, 4465, 4299, 4459, 4460, 4461, 4294, 4466, 4467, 4468,
4301, 4303, 4469, 4470, 4304
837, 4298, 4464, 4465, 4299, 4305, 4471, 4472, 4306, 4466, 4467, 4468, 4301, 4473, 4474, 4475,
4308, 4310, 4476, 4477, 4311
838, 4305, 4471, 4472, 4306, 4312, 4478, 4479, 4313, 4473, 4474, 4475, 4308, 4480, 4481, 4482,
4315, 4317, 4483, 4484, 4318
839, 4312, 4478, 4479, 4313, 4319, 4485, 4486, 4320, 4480, 4481, 4482, 4315, 4487, 4488, 4489,
4322, 4324, 4490, 4491, 4325
840, 4319, 4485, 4486, 4320, 4326, 4492, 4493, 4327, 4487, 4488, 4489, 4322, 4494, 4495, 4496,
4329, 4331, 4497, 4498, 4332
841, 4273, 4439, 4499, 4333, 4275, 4441, 4500, 4334, 4444, 4501, 4502, 4335, 4447, 4503, 4504,
4337, 4283, 4449, 4505, 4339
842, 4275, 4441, 4500, 4334, 4285, 4451, 4506, 4340, 4447, 4503, 4504, 4337, 4454, 4507, 4508,
4341, 4290, 4456, 4509, 4343
843, 4285, 4451, 4506, 4340, 4292, 4458, 4510, 4344, 4454, 4507, 4508, 4341, 4461, 4511, 4512,
4345, 4297, 4463, 4513, 4347
844, 4292, 4458, 4510, 4344, 4299, 4465, 4514, 4348, 4461, 4511, 4512, 4345, 4468, 4515, 4516,
4349, 4304, 4470, 4517, 4351
845, 4299, 4465, 4514, 4348, 4306, 4472, 4518, 4352, 4468, 4515, 4516, 4349, 4475, 4519, 4520,
4353, 4311, 4477, 4521, 4355
846, 4306, 4472, 4518, 4352, 4313, 4479, 4522, 4356, 4475, 4519, 4520, 4353, 4482, 4523, 4524,
4357, 4318, 4484, 4525, 4359
847, 4313, 4479, 4522, 4356, 4320, 4486, 4526, 4360, 4482, 4523, 4524, 4357, 4489, 4527, 4528,
4361, 4325, 4491, 4529, 4363
848, 4320, 4486, 4526, 4360, 4327, 4493, 4530, 4364, 4489, 4527, 4528, 4361, 4496, 4531, 4532,
4365, 4332, 4498, 4533, 4367
849, 4333, 4499, 4534, 4368, 4334, 4500, 4535, 4369, 4502, 4536, 4537, 4370, 4504, 4538, 4539,
4372, 4339, 4505, 4540, 4374
850, 4334, 4500, 4535, 4369, 4340, 4506, 4541, 4375, 4504, 4538, 4539, 4372, 4508, 4542, 4543,
4376, 4343, 4509, 4544, 4378
851, 4340, 4506, 4541, 4375, 4344, 4510, 4545, 4379, 4508, 4542, 4543, 4376, 4512, 4546, 4547,
4380, 4347, 4513, 4548, 4382
852, 4344, 4510, 4545, 4379, 4348, 4514, 4549, 4383, 4512, 4546, 4547, 4380, 4516, 4550, 4551,
4384, 4351, 4517, 4552, 4386
853, 4348, 4514, 4549, 4383, 4352, 4518, 4553, 4387, 4516, 4550, 4551, 4384, 4520, 4554, 4555,
4388, 4355, 4521, 4556, 4390
854, 4352, 4518, 4553, 4387, 4356, 4522, 4557, 4391, 4520, 4554, 4555, 4388, 4524, 4558, 4559,
4392, 4359, 4525, 4560, 4394
855, 4356, 4522, 4557, 4391, 4360, 4526, 4561, 4395, 4524, 4558, 4559, 4392, 4528, 4562, 4563,
4396, 4363, 4529, 4564, 4398
856, 4360, 4526, 4561, 4395, 4364, 4530, 4565, 4399, 4528, 4562, 4563, 4396, 4532, 4566, 4567,
4400, 4367, 4533, 4568, 4402
857, 4368, 4534, 4569, 4403, 4369, 4535, 4570, 4404, 4537, 4571, 4572, 4405, 4539, 4573, 4574,
4407, 4374, 4540, 4575, 4409
858, 4369, 4535, 4570, 4404, 4375, 4541, 4576, 4410, 4539, 4573, 4574, 4407, 4543, 4577, 4578,
4411, 4378, 4544, 4579, 4413
859, 4375, 4541, 4576, 4410, 4379, 4545, 4580, 4414, 4543, 4577, 4578, 4411, 4547, 4581, 4582,
4415, 4382, 4548, 4583, 4417
860, 4379, 4545, 4580, 4414, 4383, 4549, 4584, 4418, 4547, 4581, 4582, 4415, 4551, 4585, 4586,
4419, 4386, 4552, 4587, 4421
861, 4383, 4549, 4584, 4418, 4387, 4553, 4588, 4422, 4551, 4585, 4586, 4419, 4555, 4589, 4590,
4423, 4390, 4556, 4591, 4425
862, 4387, 4553, 4588, 4422, 4391, 4557, 4592, 4426, 4555, 4589, 4590, 4423, 4559, 4593, 4594,
4427, 4394, 4560, 4595, 4429
863, 4391, 4557, 4592, 4426, 4395, 4561, 4596, 4430, 4559, 4593, 4594, 4427, 4563, 4597, 4598,
4431, 4398, 4564, 4599, 4433
864, 4395, 4561, 4596, 4430, 4399, 4565, 4600, 4434, 4563, 4597, 4598, 4431, 4567, 4601, 4602,
4435, 4402, 4568, 4603, 4437
865, 4438, 4604, 4605, 4439, 4440, 4606, 4607, 4441, 4608, 4609, 4610, 4443, 4611, 4612, 4613,
4446, 4448, 4614, 4615, 4449
866, 4440, 4606, 4607, 4441, 4450, 4616, 4617, 4451, 4611, 4612, 4613, 4446, 4618, 4619, 4620,
4453, 4455, 4621, 4622, 4456
867, 4450, 4616, 4617, 4451, 4457, 4623, 4624, 4458, 4618, 4619, 4620, 4453, 4625, 4626, 4627,
4460, 4462, 4628, 4629, 4463
868, 4457, 4623, 4624, 4458, 4464, 4630, 4631, 4465, 4625, 4626, 4627, 4460, 4632, 4633, 4634,
4467, 4469, 4635, 4636, 4470
869, 4464, 4630, 4631, 4465, 4471, 4637, 4638, 4472, 4632, 4633, 4634, 4467, 4639, 4640, 4641,
4474, 4476, 4642, 4643, 4477
870, 4471, 4637, 4638, 4472, 4478, 4644, 4645, 4479, 4639, 4640, 4641, 4474, 4646, 4647, 4648,
4481, 4483, 4649, 4650, 4484
871, 4478, 4644, 4645, 4479, 4485, 4651, 4652, 4486, 4646, 4647, 4648, 4481, 4653, 4654, 4655,
4488, 4490, 4656, 4657, 4491
872, 4485, 4651, 4652, 4486, 4492, 4658, 4659, 4493, 4653, 4654, 4655, 4488, 4660, 4661, 4662,
4495, 4497, 4663, 4664, 4498
873, 4439, 4605, 4665, 4499, 4441, 4607, 4666, 4500, 4610, 4667, 4668, 4501, 4613, 4669, 4670,
4503, 4449, 4615, 4671, 4505
874, 4441, 4607, 4666, 4500, 4451, 4617, 4672, 4506, 4613, 4669, 4670, 4503, 4620, 4673, 4674,
4507, 4456, 4622, 4675, 4509
875, 4451, 4617, 4672, 4506, 4458, 4624, 4676, 4510, 4620, 4673, 4674, 4507, 4627, 4677, 4678,
4511, 4463, 4629, 4679, 4513
876, 4458, 4624, 4676, 4510, 4465, 4631, 4680, 4514, 4627, 4677, 4678, 4511, 4634, 4681, 4682,
4515, 4470, 4636, 4683, 4517
877, 4465, 4631, 4680, 4514, 4472, 4638, 4684, 4518, 4634, 4681, 4682, 4515, 4641, 4685, 4686,
4519, 4477, 4643, 4687, 4521
878, 4472, 4638, 4684, 4518, 4479, 4645, 4688, 4522, 4641, 4685, 4686, 4519, 4648, 4689, 4690,
4523, 4484, 4650, 4691, 4525
879, 4479, 4645, 4688, 4522, 4486, 4652, 4692, 4526, 4648, 4689, 4690, 4523, 4655, 4693, 4694,
4527, 4491, 4657, 4695, 4529
880, 4486, 4652, 4692, 4526, 4493, 4659, 4696, 4530, 4655, 4693, 4694, 4527, 4662, 4697, 4698,
4531, 4498, 4664, 4699, 4533
881, 4499, 4665, 4700, 4534, 4500, 4666, 4701, 4535, 4668, 4702, 4703, 4536, 4670, 4704, 4705,
4538, 4505, 4671, 4706, 4540
882, 4500, 4666, 4701, 4535, 4506, 4672, 4707, 4541, 4670, 4704, 4705, 4538, 4674, 4708, 4709,
4542, 4509, 4675, 4710, 4544
883, 4506, 4672, 4707, 4541, 4510, 4676, 4711, 4545, 4674, 4708, 4709, 4542, 4678, 4712, 4713,
4546, 4513, 4679, 4714, 4548
884, 4510, 4676, 4711, 4545, 4514, 4680, 4715, 4549, 4678, 4712, 4713, 4546, 4682, 4716, 4717,
4550, 4517, 4683, 4718, 4552
885, 4514, 4680, 4715, 4549, 4518, 4684, 4719, 4553, 4682, 4716, 4717, 4550, 4686, 4720, 4721,
4554, 4521, 4687, 4722, 4556
886, 4518, 4684, 4719, 4553, 4522, 4688, 4723, 4557, 4686, 4720, 4721, 4554, 4690, 4724, 4725,
4558, 4525, 4691, 4726, 4560
887, 4522, 4688, 4723, 4557, 4526, 4692, 4727, 4561, 4690, 4724, 4725, 4558, 4694, 4728, 4729,
4562, 4529, 4695, 4730, 4564
888, 4526, 4692, 4727, 4561, 4530, 4696, 4731, 4565, 4694, 4728, 4729, 4562, 4698, 4732, 4733,
4566, 4533, 4699, 4734, 4568
889, 4534, 4700, 4735, 4569, 4535, 4701, 4736, 4570, 4703, 4737, 4738, 4571, 4705, 4739, 4740,
4573, 4540, 4706, 4741, 4575
890, 4535, 4701, 4736, 4570, 4541, 4707, 4742, 4576, 4705, 4739, 4740, 4573, 4709, 4743, 4744,
4577, 4544, 4710, 4745, 4579
891, 4541, 4707, 4742, 4576, 4545, 4711, 4746, 4580, 4709, 4743, 4744, 4577, 4713, 4747, 4748,
4581, 4548, 4714, 4749, 4583
892, 4545, 4711, 4746, 4580, 4549, 4715, 4750, 4584, 4713, 4747, 4748, 4581, 4717, 4751, 4752,
4585, 4552, 4718, 4753, 4587
893, 4549, 4715, 4750, 4584, 4553, 4719, 4754, 4588, 4717, 4751, 4752, 4585, 4721, 4755, 4756,
4589, 4556, 4722, 4757, 4591
894, 4553, 4719, 4754, 4588, 4557, 4723, 4758, 4592, 4721, 4755, 4756, 4589, 4725, 4759, 4760,
4593, 4560, 4726, 4761, 4595
895, 4557, 4723, 4758, 4592, 4561, 4727, 4762, 4596, 4725, 4759, 4760, 4593, 4729, 4763, 4764,
4597, 4564, 4730, 4765, 4599
896, 4561, 4727, 4762, 4596, 4565, 4731, 4766, 4600, 4729, 4763, 4764, 4597, 4733, 4767, 4768,
4601, 4568, 4734, 4769, 4603
897, 4604, 4770, 4771, 4605, 4606, 4772, 4773, 4607, 4774, 4775, 4776, 4609, 4777, 4778, 4779,
4612, 4614, 4780, 4781, 4615
898, 4606, 4772, 4773, 4607, 4616, 4782, 4783, 4617, 4777, 4778, 4779, 4612, 4784, 4785, 4786,
4619, 4621, 4787, 4788, 4622
899, 4616, 4782, 4783, 4617, 4623, 4789, 4790, 4624, 4784, 4785, 4786, 4619, 4791, 4792, 4793,
4626, 4628, 4794, 4795, 4629
900, 4623, 4789, 4790, 4624, 4630, 4796, 4797, 4631, 4791, 4792, 4793, 4626, 4798, 4799, 4800,
4633, 4635, 4801, 4802, 4636
901, 4630, 4796, 4797, 4631, 4637, 4803, 4804, 4638, 4798, 4799, 4800, 4633, 4805, 4806, 4807,
4640, 4642, 4808, 4809, 4643
902, 4637, 4803, 4804, 4638, 4644, 4810, 4811, 4645, 4805, 4806, 4807, 4640, 4812, 4813, 4814,
4647, 4649, 4815, 4816, 4650
903, 4644, 4810, 4811, 4645, 4651, 4817, 4818, 4652, 4812, 4813, 4814, 4647, 4819, 4820, 4821,
4654, 4656, 4822, 4823, 4657
904, 4651, 4817, 4818, 4652, 4658, 4824, 4825, 4659, 4819, 4820, 4821, 4654, 4826, 4827, 4828,
4661, 4663, 4829, 4830, 4664
905, 4605, 4771, 4831, 4665, 4607, 4773, 4832, 4666, 4776, 4833, 4834, 4667, 4779, 4835, 4836,
4669, 4615, 4781, 4837, 4671
906, 4607, 4773, 4832, 4666, 4617, 4783, 4838, 4672, 4779, 4835, 4836, 4669, 4786, 4839, 4840,
4673, 4622, 4788, 4841, 4675
907, 4617, 4783, 4838, 4672, 4624, 4790, 4842, 4676, 4786, 4839, 4840, 4673, 4793, 4843, 4844,
4677, 4629, 4795, 4845, 4679
908, 4624, 4790, 4842, 4676, 4631, 4797, 4846, 4680, 4793, 4843, 4844, 4677, 4800, 4847, 4848,
4681, 4636, 4802, 4849, 4683
909, 4631, 4797, 4846, 4680, 4638, 4804, 4850, 4684, 4800, 4847, 4848, 4681, 4807, 4851, 4852,
4685, 4643, 4809, 4853, 4687
910, 4638, 4804, 4850, 4684, 4645, 4811, 4854, 4688, 4807, 4851, 4852, 4685, 4814, 4855, 4856,
4689, 4650, 4816, 4857, 4691
911, 4645, 4811, 4854, 4688, 4652, 4818, 4858, 4692, 4814, 4855, 4856, 4689, 4821, 4859, 4860,
4693, 4657, 4823, 4861, 4695
912, 4652, 4818, 4858, 4692, 4659, 4825, 4862, 4696, 4821, 4859, 4860, 4693, 4828, 4863, 4864,
4697, 4664, 4830, 4865, 4699
913, 4665, 4831, 4866, 4700, 4666, 4832, 4867, 4701, 4834, 4868, 4869, 4702, 4836, 4870, 4871,
4704, 4671, 4837, 4872, 4706
914, 4666, 4832, 4867, 4701, 4672, 4838, 4873, 4707, 4836, 4870, 4871, 4704, 4840, 4874, 4875,
4708, 4675, 4841, 4876, 4710
915, 4672, 4838, 4873, 4707, 4676, 4842, 4877, 4711, 4840, 4874, 4875, 4708, 4844, 4878, 4879,
4712, 4679, 4845, 4880, 4714
916, 4676, 4842, 4877, 4711, 4680, 4846, 4881, 4715, 4844, 4878, 4879, 4712, 4848, 4882, 4883,
4716, 4683, 4849, 4884, 4718
917, 4680, 4846, 4881, 4715, 4684, 4850, 4885, 4719, 4848, 4882, 4883, 4716, 4852, 4886, 4887,
4720, 4687, 4853, 4888, 4722
918, 4684, 4850, 4885, 4719, 4688, 4854, 4889, 4723, 4852, 4886, 4887, 4720, 4856, 4890, 4891,
4724, 4691, 4857, 4892, 4726
919, 4688, 4854, 4889, 4723, 4692, 4858, 4893, 4727, 4856, 4890, 4891, 4724, 4860, 4894, 4895,
4728, 4695, 4861, 4896, 4730
920, 4692, 4858, 4893, 4727, 4696, 4862, 4897, 4731, 4860, 4894, 4895, 4728, 4864, 4898, 4899,
4732, 4699, 4865, 4900, 4734
921, 4700, 4866, 4901, 4735, 4701, 4867, 4902, 4736, 4869, 4903, 4904, 4737, 4871, 4905, 4906,
4739, 4706, 4872, 4907, 4741
922, 4701, 4867, 4902, 4736, 4707, 4873, 4908, 4742, 4871, 4905, 4906, 4739, 4875, 4909, 4910,
4743, 4710, 4876, 4911, 4745
923, 4707, 4873, 4908, 4742, 4711, 4877, 4912, 4746, 4875, 4909, 4910, 4743, 4879, 4913, 4914,
4747, 4714, 4880, 4915, 4749
924, 4711, 4877, 4912, 4746, 4715, 4881, 4916, 4750, 4879, 4913, 4914, 4747, 4883, 4917, 4918,
4751, 4718, 4884, 4919, 4753
925, 4715, 4881, 4916, 4750, 4719, 4885, 4920, 4754, 4883, 4917, 4918, 4751, 4887, 4921, 4922,
4755, 4722, 4888, 4923, 4757
926, 4719, 4885, 4920, 4754, 4723, 4889, 4924, 4758, 4887, 4921, 4922, 4755, 4891, 4925, 4926,
4759, 4726, 4892, 4927, 4761
927, 4723, 4889, 4924, 4758, 4727, 4893, 4928, 4762, 4891, 4925, 4926, 4759, 4895, 4929, 4930,
4763, 4730, 4896, 4931, 4765
928, 4727, 4893, 4928, 4762, 4731, 4897, 4932, 4766, 4895, 4929, 4930, 4763, 4899, 4933, 4934,
4767, 4734, 4900, 4935, 4769
929, 4770, 4936, 4937, 4771, 4772, 4938, 4939, 4773, 4940, 4941, 4942, 4775, 4943, 4944, 4945,
4778, 4780, 4946, 4947, 4781
930, 4772, 4938, 4939, 4773, 4782, 4948, 4949, 4783, 4943, 4944, 4945, 4778, 4950, 4951, 4952,
4785, 4787, 4953, 4954, 4788
931, 4782, 4948, 4949, 4783, 4789, 4955, 4956, 4790, 4950, 4951, 4952, 4785, 4957, 4958, 4959,
4792, 4794, 4960, 4961, 4795
932, 4789, 4955, 4956, 4790, 4796, 4962, 4963, 4797, 4957, 4958, 4959, 4792, 4964, 4965, 4966,
4799, 4801, 4967, 4968, 4802
933, 4796, 4962, 4963, 4797, 4803, 4969, 4970, 4804, 4964, 4965, 4966, 4799, 4971, 4972, 4973,
4806, 4808, 4974, 4975, 4809
934, 4803, 4969, 4970, 4804, 4810, 4976, 4977, 4811, 4971, 4972, 4973, 4806, 4978, 4979, 4980,
4813, 4815, 4981, 4982, 4816
935, 4810, 4976, 4977, 4811, 4817, 4983, 4984, 4818, 4978, 4979, 4980, 4813, 4985, 4986, 4987,
4820, 4822, 4988, 4989, 4823
936, 4817, 4983, 4984, 4818, 4824, 4990, 4991, 4825, 4985, 4986, 4987, 4820, 4992, 4993, 4994,
4827, 4829, 4995, 4996, 4830
937, 4771, 4937, 4997, 4831, 4773, 4939, 4998, 4832, 4942, 4999, 5000, 4833, 4945, 5001, 5002,
4835, 4781, 4947, 5003, 4837
938, 4773, 4939, 4998, 4832, 4783, 4949, 5004, 4838, 4945, 5001, 5002, 4835, 4952, 5005, 5006,
4839, 4788, 4954, 5007, 4841
939, 4783, 4949, 5004, 4838, 4790, 4956, 5008, 4842, 4952, 5005, 5006, 4839, 4959, 5009, 5010,
4843, 4795, 4961, 5011, 4845
940, 4790, 4956, 5008, 4842, 4797, 4963, 5012, 4846, 4959, 5009, 5010, 4843, 4966, 5013, 5014,
4847, 4802, 4968, 5015, 4849
941, 4797, 4963, 5012, 4846, 4804, 4970, 5016, 4850, 4966, 5013, 5014, 4847, 4973, 5017, 5018,
4851, 4809, 4975, 5019, 4853
942, 4804, 4970, 5016, 4850, 4811, 4977, 5020, 4854, 4973, 5017, 5018, 4851, 4980, 5021, 5022,
4855, 4816, 4982, 5023, 4857
943, 4811, 4977, 5020, 4854, 4818, 4984, 5024, 4858, 4980, 5021, 5022, 4855, 4987, 5025, 5026,
4859, 4823, 4989, 5027, 4861
944, 4818, 4984, 5024, 4858, 4825, 4991, 5028, 4862, 4987, 5025, 5026, 4859, 4994, 5029, 5030,
4863, 4830, 4996, 5031, 4865
945, 4831, 4997, 5032, 4866, 4832, 4998, 5033, 4867, 5000, 5034, 5035, 4868, 5002, 5036, 5037,
4870, 4837, 5003, 5038, 4872
946, 4832, 4998, 5033, 4867, 4838, 5004, 5039, 4873, 5002, 5036, 5037, 4870, 5006, 5040, 5041,
4874, 4841, 5007, 5042, 4876
947, 4838, 5004, 5039, 4873, 4842, 5008, 5043, 4877, 5006, 5040, 5041, 4874, 5010, 5044, 5045,
4878, 4845, 5011, 5046, 4880
948, 4842, 5008, 5043, 4877, 4846, 5012, 5047, 4881, 5010, 5044, 5045, 4878, 5014, 5048, 5049,
4882, 4849, 5015, 5050, 4884
949, 4846, 5012, 5047, 4881, 4850, 5016, 5051, 4885, 5014, 5048, 5049, 4882, 5018, 5052, 5053,
4886, 4853, 5019, 5054, 4888
950, 4850, 5016, 5051, 4885, 4854, 5020, 5055, 4889, 5018, 5052, 5053, 4886, 5022, 5056, 5057,
4890, 4857, 5023, 5058, 4892
951, 4854, 5020, 5055, 4889, 4858, 5024, 5059, 4893, 5022, 5056, 5057, 4890, 5026, 5060, 5061,
4894, 4861, 5027, 5062, 4896
952, 4858, 5024, 5059, 4893, 4862, 5028, 5063, 4897, 5026, 5060, 5061, 4894, 5030, 5064, 5065,
4898, 4865, 5031, 5066, 4900
953, 4866, 5032, 5067, 4901, 4867, 5033, 5068, 4902, 5035, 5069, 5070, 4903, 5037, 5071, 5072,
4905, 4872, 5038, 5073, 4907
954, 4867, 5033, 5068, 4902, 4873, 5039, 5074, 4908, 5037, 5071, 5072, 4905, 5041, 5075, 5076,
4909, 4876, 5042, 5077, 4911
955, 4873, 5039, 5074, 4908, 4877, 5043, 5078, 4912, 5041, 5075, 5076, 4909, 5045, 5079, 5080,
4913, 4880, 5046, 5081, 4915
956, 4877, 5043, 5078, 4912, 4881, 5047, 5082, 4916, 5045, 5079, 5080, 4913, 5049, 5083, 5084,
4917, 4884, 5050, 5085, 4919
957, 4881, 5047, 5082, 4916, 4885, 5051, 5086, 4920, 5049, 5083, 5084, 4917, 5053, 5087, 5088,
4921, 4888, 5054, 5089, 4923
958, 4885, 5051, 5086, 4920, 4889, 5055, 5090, 4924, 5053, 5087, 5088, 4921, 5057, 5091, 5092,
4925, 4892, 5058, 5093, 4927
959, 4889, 5055, 5090, 4924, 4893, 5059, 5094, 4928, 5057, 5091, 5092, 4925, 5061, 5095, 5096,
4929, 4896, 5062, 5097, 4931
960, 4893, 5059, 5094, 4928, 4897, 5063, 5098, 4932, 5061, 5095, 5096, 4929, 5065, 5099, 5100,
4933, 4900, 5066, 5101, 4935
961, 4936, 5102, 5103, 4937, 4938, 5104, 5105, 4939, 5106, 5107, 5108, 4941, 5109, 5110, 5111,
4944, 4946, 5112, 5113, 4947
962, 4938, 5104, 5105, 4939, 4948, 5114, 5115, 4949, 5109, 5110, 5111, 4944, 5116, 5117, 5118,
4951, 4953, 5119, 5120, 4954
963, 4948, 5114, 5115, 4949, 4955, 5121, 5122, 4956, 5116, 5117, 5118, 4951, 5123, 5124, 5125,
4958, 4960, 5126, 5127, 4961
964, 4955, 5121, 5122, 4956, 4962, 5128, 5129, 4963, 5123, 5124, 5125, 4958, 5130, 5131, 5132,
4965, 4967, 5133, 5134, 4968
965, 4962, 5128, 5129, 4963, 4969, 5135, 5136, 4970, 5130, 5131, 5132, 4965, 5137, 5138, 5139,
4972, 4974, 5140, 5141, 4975
966, 4969, 5135, 5136, 4970, 4976, 5142, 5143, 4977, 5137, 5138, 5139, 4972, 5144, 5145, 5146,
4979, 4981, 5147, 5148, 4982
967, 4976, 5142, 5143, 4977, 4983, 5149, 5150, 4984, 5144, 5145, 5146, 4979, 5151, 5152, 5153,
4986, 4988, 5154, 5155, 4989
968, 4983, 5149, 5150, 4984, 4990, 5156, 5157, 4991, 5151, 5152, 5153, 4986, 5158, 5159, 5160,
4993, 4995, 5161, 5162, 4996
969, 4937, 5103, 5163, 4997, 4939, 5105, 5164, 4998, 5108, 5165, 5166, 4999, 5111, 5167, 5168,
5001, 4947, 5113, 5169, 5003
970, 4939, 5105, 5164, 4998, 4949, 5115, 5170, 5004, 5111, 5167, 5168, 5001, 5118, 5171, 5172,
5005, 4954, 5120, 5173, 5007
971, 4949, 5115, 5170, 5004, 4956, 5122, 5174, 5008, 5118, 5171, 5172, 5005, 5125, 5175, 5176,
5009, 4961, 5127, 5177, 5011
972, 4956, 5122, 5174, 5008, 4963, 5129, 5178, 5012, 5125, 5175, 5176, 5009, 5132, 5179, 5180,
5013, 4968, 5134, 5181, 5015
973, 4963, 5129, 5178, 5012, 4970, 5136, 5182, 5016, 5132, 5179, 5180, 5013, 5139, 5183, 5184,
5017, 4975, 5141, 5185, 5019
974, 4970, 5136, 5182, 5016, 4977, 5143, 5186, 5020, 5139, 5183, 5184, 5017, 5146, 5187, 5188,
5021, 4982, 5148, 5189, 5023
975, 4977, 5143, 5186, 5020, 4984, 5150, 5190, 5024, 5146, 5187, 5188, 5021, 5153, 5191, 5192,
5025, 4989, 5155, 5193, 5027
976, 4984, 5150, 5190, 5024, 4991, 5157, 5194, 5028, 5153, 5191, 5192, 5025, 5160, 5195, 5196,
5029, 4996, 5162, 5197, 5031
977, 4997, 5163, 5198, 5032, 4998, 5164, 5199, 5033, 5166, 5200, 5201, 5034, 5168, 5202, 5203,
5036, 5003, 5169, 5204, 5038
978, 4998, 5164, 5199, 5033, 5004, 5170, 5205, 5039, 5168, 5202, 5203, 5036, 5172, 5206, 5207,
5040, 5007, 5173, 5208, 5042
979, 5004, 5170, 5205, 5039, 5008, 5174, 5209, 5043, 5172, 5206, 5207, 5040, 5176, 5210, 5211,
5044, 5011, 5177, 5212, 5046
980, 5008, 5174, 5209, 5043, 5012, 5178, 5213, 5047, 5176, 5210, 5211, 5044, 5180, 5214, 5215,
5048, 5015, 5181, 5216, 5050
981, 5012, 5178, 5213, 5047, 5016, 5182, 5217, 5051, 5180, 5214, 5215, 5048, 5184, 5218, 5219,
5052, 5019, 5185, 5220, 5054
982, 5016, 5182, 5217, 5051, 5020, 5186, 5221, 5055, 5184, 5218, 5219, 5052, 5188, 5222, 5223,
5056, 5023, 5189, 5224, 5058
983, 5020, 5186, 5221, 5055, 5024, 5190, 5225, 5059, 5188, 5222, 5223, 5056, 5192, 5226, 5227,
5060, 5027, 5193, 5228, 5062
984, 5024, 5190, 5225, 5059, 5028, 5194, 5229, 5063, 5192, 5226, 5227, 5060, 5196, 5230, 5231,
5064, 5031, 5197, 5232, 5066
985, 5032, 5198, 5233, 5067, 5033, 5199, 5234, 5068, 5201, 5235, 5236, 5069, 5203, 5237, 5238,
5071, 5038, 5204, 5239, 5073
986, 5033, 5199, 5234, 5068, 5039, 5205, 5240, 5074, 5203, 5237, 5238, 5071, 5207, 5241, 5242,
5075, 5042, 5208, 5243, 5077
987, 5039, 5205, 5240, 5074, 5043, 5209, 5244, 5078, 5207, 5241, 5242, 5075, 5211, 5245, 5246,
5079, 5046, 5212, 5247, 5081
988, 5043, 5209, 5244, 5078, 5047, 5213, 5248, 5082, 5211, 5245, 5246, 5079, 5215, 5249, 5250,
5083, 5050, 5216, 5251, 5085
989, 5047, 5213, 5248, 5082, 5051, 5217, 5252, 5086, 5215, 5249, 5250, 5083, 5219, 5253, 5254,
5087, 5054, 5220, 5255, 5089
990, 5051, 5217, 5252, 5086, 5055, 5221, 5256, 5090, 5219, 5253, 5254, 5087, 5223, 5257, 5258,
5091, 5058, 5224, 5259, 5093
991, 5055, 5221, 5256, 5090, 5059, 5225, 5260, 5094, 5223, 5257, 5258, 5091, 5227, 5261, 5262,
5095, 5062, 5228, 5263, 5097
992, 5059, 5225, 5260, 5094, 5063, 5229, 5264, 5098, 5227, 5261, 5262, 5095, 5231, 5265, 5266,
5099, 5066, 5232, 5267, 5101
993, 5102, 5268, 5269, 5103, 5104, 5270, 5271, 5105, 5272, 5273, 5274, 5107, 5275, 5276, 5277,
5110, 5112, 5278, 5279, 5113
994, 5104, 5270, 5271, 5105, 5114, 5280, 5281, 5115, 5275, 5276, 5277, 5110, 5282, 5283, 5284,
5117, 5119, 5285, 5286, 5120
995, 5114, 5280, 5281, 5115, 5121, 5287, 5288, 5122, 5282, 5283, 5284, 5117, 5289, 5290, 5291,
5124, 5126, 5292, 5293, 5127
996, 5121, 5287, 5288, 5122, 5128, 5294, 5295, 5129, 5289, 5290, 5291, 5124, 5296, 5297, 5298,
5131, 5133, 5299, 5300, 5134
997, 5128, 5294, 5295, 5129, 5135, 5301, 5302, 5136, 5296, 5297, 5298, 5131, 5303, 5304, 5305,
5138, 5140, 5306, 5307, 5141
998, 5135, 5301, 5302, 5136, 5142, 5308, 5309, 5143, 5303, 5304, 5305, 5138, 5310, 5311, 5312,
5145, 5147, 5313, 5314, 5148
999, 5142, 5308, 5309, 5143, 5149, 5315, 5316, 5150, 5310, 5311, 5312, 5145, 5317, 5318, 5319,
5152, 5154, 5320, 5321, 5155
1000, 5149, 5315, 5316, 5150, 5156, 5322, 5323, 5157, 5317, 5318, 5319, 5152, 5324, 5325, 5326,
5159, 5161, 5327, 5328, 5162
1001, 5103, 5269, 5329, 5163, 5105, 5271, 5330, 5164, 5274, 5331, 5332, 5165, 5277, 5333, 5334,
5167, 5113, 5279, 5335, 5169
1002, 5105, 5271, 5330, 5164, 5115, 5281, 5336, 5170, 5277, 5333, 5334, 5167, 5284, 5337, 5338,
5171, 5120, 5286, 5339, 5173
1003, 5115, 5281, 5336, 5170, 5122, 5288, 5340, 5174, 5284, 5337, 5338, 5171, 5291, 5341, 5342,
5175, 5127, 5293, 5343, 5177
1004, 5122, 5288, 5340, 5174, 5129, 5295, 5344, 5178, 5291, 5341, 5342, 5175, 5298, 5345, 5346,
5179, 5134, 5300, 5347, 5181
1005, 5129, 5295, 5344, 5178, 5136, 5302, 5348, 5182, 5298, 5345, 5346, 5179, 5305, 5349, 5350,
5183, 5141, 5307, 5351, 5185
1006, 5136, 5302, 5348, 5182, 5143, 5309, 5352, 5186, 5305, 5349, 5350, 5183, 5312, 5353, 5354,
5187, 5148, 5314, 5355, 5189
1007, 5143, 5309, 5352, 5186, 5150, 5316, 5356, 5190, 5312, 5353, 5354, 5187, 5319, 5357, 5358,
5191, 5155, 5321, 5359, 5193
1008, 5150, 5316, 5356, 5190, 5157, 5323, 5360, 5194, 5319, 5357, 5358, 5191, 5326, 5361, 5362,
5195, 5162, 5328, 5363, 5197
1009, 5163, 5329, 5364, 5198, 5164, 5330, 5365, 5199, 5332, 5366, 5367, 5200, 5334, 5368, 5369,
5202, 5169, 5335, 5370, 5204
1010, 5164, 5330, 5365, 5199, 5170, 5336, 5371, 5205, 5334, 5368, 5369, 5202, 5338, 5372, 5373,
5206, 5173, 5339, 5374, 5208
1011, 5170, 5336, 5371, 5205, 5174, 5340, 5375, 5209, 5338, 5372, 5373, 5206, 5342, 5376, 5377,
5210, 5177, 5343, 5378, 5212
1012, 5174, 5340, 5375, 5209, 5178, 5344, 5379, 5213, 5342, 5376, 5377, 5210, 5346, 5380, 5381,
5214, 5181, 5347, 5382, 5216
1013, 5178, 5344, 5379, 5213, 5182, 5348, 5383, 5217, 5346, 5380, 5381, 5214, 5350, 5384, 5385,
5218, 5185, 5351, 5386, 5220
1014, 5182, 5348, 5383, 5217, 5186, 5352, 5387, 5221, 5350, 5384, 5385, 5218, 5354, 5388, 5389,
5222, 5189, 5355, 5390, 5224
1015, 5186, 5352, 5387, 5221, 5190, 5356, 5391, 5225, 5354, 5388, 5389, 5222, 5358, 5392, 5393,
5226, 5193, 5359, 5394, 5228
1016, 5190, 5356, 5391, 5225, 5194, 5360, 5395, 5229, 5358, 5392, 5393, 5226, 5362, 5396, 5397,
5230, 5197, 5363, 5398, 5232
1017, 5198, 5364, 5399, 5233, 5199, 5365, 5400, 5234, 5367, 5401, 5402, 5235, 5369, 5403, 5404,
5237, 5204, 5370, 5405, 5239
1018, 5199, 5365, 5400, 5234, 5205, 5371, 5406, 5240, 5369, 5403, 5404, 5237, 5373, 5407, 5408,
5241, 5208, 5374, 5409, 5243
1019, 5205, 5371, 5406, 5240, 5209, 5375, 5410, 5244, 5373, 5407, 5408, 5241, 5377, 5411, 5412,
5245, 5212, 5378, 5413, 5247
1020, 5209, 5375, 5410, 5244, 5213, 5379, 5414, 5248, 5377, 5411, 5412, 5245, 5381, 5415, 5416,
5249, 5216, 5382, 5417, 5251
1021, 5213, 5379, 5414, 5248, 5217, 5383, 5418, 5252, 5381, 5415, 5416, 5249, 5385, 5419, 5420,
5253, 5220, 5386, 5421, 5255
1022, 5217, 5383, 5418, 5252, 5221, 5387, 5422, 5256, 5385, 5419, 5420, 5253, 5389, 5423, 5424,
5257, 5224, 5390, 5425, 5259
1023, 5221, 5387, 5422, 5256, 5225, 5391, 5426, 5260, 5389, 5423, 5424, 5257, 5393, 5427, 5428,
5261, 5228, 5394, 5429, 5263
1024, 5225, 5391, 5426, 5260, 5229, 5395, 5430, 5264, 5393, 5427, 5428, 5261, 5397, 5431, 5432,
5265, 5232, 5398, 5433, 5267
1025, 5268, 5434, 5435, 5269, 5270, 5436, 5437, 5271, 5438, 5439, 5440, 5273, 5441, 5442, 5443,
5276, 5278, 5444, 5445, 5279
1026, 5270, 5436, 5437, 5271, 5280, 5446, 5447, 5281, 5441, 5442, 5443, 5276, 5448, 5449, 5450,
5283, 5285, 5451, 5452, 5286
1027, 5280, 5446, 5447, 5281, 5287, 5453, 5454, 5288, 5448, 5449, 5450, 5283, 5455, 5456, 5457,
5290, 5292, 5458, 5459, 5293
1028, 5287, 5453, 5454, 5288, 5294, 5460, 5461, 5295, 5455, 5456, 5457, 5290, 5462, 5463, 5464,
5297, 5299, 5465, 5466, 5300
1029, 5294, 5460, 5461, 5295, 5301, 5467, 5468, 5302, 5462, 5463, 5464, 5297, 5469, 5470, 5471,
5304, 5306, 5472, 5473, 5307
1030, 5301, 5467, 5468, 5302, 5308, 5474, 5475, 5309, 5469, 5470, 5471, 5304, 5476, 5477, 5478,
5311, 5313, 5479, 5480, 5314
1031, 5308, 5474, 5475, 5309, 5315, 5481, 5482, 5316, 5476, 5477, 5478, 5311, 5483, 5484, 5485,
5318, 5320, 5486, 5487, 5321
1032, 5315, 5481, 5482, 5316, 5322, 5488, 5489, 5323, 5483, 5484, 5485, 5318, 5490, 5491, 5492,
5325, 5327, 5493, 5494, 5328
1033, 5269, 5435, 5495, 5329, 5271, 5437, 5496, 5330, 5440, 5497, 5498, 5331, 5443, 5499, 5500,
5333, 5279, 5445, 5501, 5335
1034, 5271, 5437, 5496, 5330, 5281, 5447, 5502, 5336, 5443, 5499, 5500, 5333, 5450, 5503, 5504,
5337, 5286, 5452, 5505, 5339
1035, 5281, 5447, 5502, 5336, 5288, 5454, 5506, 5340, 5450, 5503, 5504, 5337, 5457, 5507, 5508,
5341, 5293, 5459, 5509, 5343
1036, 5288, 5454, 5506, 5340, 5295, 5461, 5510, 5344, 5457, 5507, 5508, 5341, 5464, 5511, 5512,
5345, 5300, 5466, 5513, 5347
1037, 5295, 5461, 5510, 5344, 5302, 5468, 5514, 5348, 5464, 5511, 5512, 5345, 5471, 5515, 5516,
5349, 5307, 5473, 5517, 5351
1038, 5302, 5468, 5514, 5348, 5309, 5475, 5518, 5352, 5471, 5515, 5516, 5349, 5478, 5519, 5520,
5353, 5314, 5480, 5521, 5355
1039, 5309, 5475, 5518, 5352, 5316, 5482, 5522, 5356, 5478, 5519, 5520, 5353, 5485, 5523, 5524,
5357, 5321, 5487, 5525, 5359
1040, 5316, 5482, 5522, 5356, 5323, 5489, 5526, 5360, 5485, 5523, 5524, 5357, 5492, 5527, 5528,
5361, 5328, 5494, 5529, 5363
1041, 5329, 5495, 5530, 5364, 5330, 5496, 5531, 5365, 5498, 5532, 5533, 5366, 5500, 5534, 5535,
5368, 5335, 5501, 5536, 5370
1042, 5330, 5496, 5531, 5365, 5336, 5502, 5537, 5371, 5500, 5534, 5535, 5368, 5504, 5538, 5539,
5372, 5339, 5505, 5540, 5374
1043, 5336, 5502, 5537, 5371, 5340, 5506, 5541, 5375, 5504, 5538, 5539, 5372, 5508, 5542, 5543,
5376, 5343, 5509, 5544, 5378
1044, 5340, 5506, 5541, 5375, 5344, 5510, 5545, 5379, 5508, 5542, 5543, 5376, 5512, 5546, 5547,
5380, 5347, 5513, 5548, 5382
1045, 5344, 5510, 5545, 5379, 5348, 5514, 5549, 5383, 5512, 5546, 5547, 5380, 5516, 5550, 5551,
5384, 5351, 5517, 5552, 5386
1046, 5348, 5514, 5549, 5383, 5352, 5518, 5553, 5387, 5516, 5550, 5551, 5384, 5520, 5554, 5555,
5388, 5355, 5521, 5556, 5390
1047, 5352, 5518, 5553, 5387, 5356, 5522, 5557, 5391, 5520, 5554, 5555, 5388, 5524, 5558, 5559,
5392, 5359, 5525, 5560, 5394
1048, 5356, 5522, 5557, 5391, 5360, 5526, 5561, 5395, 5524, 5558, 5559, 5392, 5528, 5562, 5563,
5396, 5363, 5529, 5564, 5398
1049, 5364, 5530, 5565, 5399, 5365, 5531, 5566, 5400, 5533, 5567, 5568, 5401, 5535, 5569, 5570,
5403, 5370, 5536, 5571, 5405
1050, 5365, 5531, 5566, 5400, 5371, 5537, 5572, 5406, 5535, 5569, 5570, 5403, 5539, 5573, 5574,
5407, 5374, 5540, 5575, 5409
1051, 5371, 5537, 5572, 5406, 5375, 5541, 5576, 5410, 5539, 5573, 5574, 5407, 5543, 5577, 5578,
5411, 5378, 5544, 5579, 5413
1052, 5375, 5541, 5576, 5410, 5379, 5545, 5580, 5414, 5543, 5577, 5578, 5411, 5547, 5581, 5582,
5415, 5382, 5548, 5583, 5417
1053, 5379, 5545, 5580, 5414, 5383, 5549, 5584, 5418, 5547, 5581, 5582, 5415, 5551, 5585, 5586,
5419, 5386, 5552, 5587, 5421
1054, 5383, 5549, 5584, 5418, 5387, 5553, 5588, 5422, 5551, 5585, 5586, 5419, 5555, 5589, 5590,
5423, 5390, 5556, 5591, 5425
1055, 5387, 5553, 5588, 5422, 5391, 5557, 5592, 5426, 5555, 5589, 5590, 5423, 5559, 5593, 5594,
5427, 5394, 5560, 5595, 5429
1056, 5391, 5557, 5592, 5426, 5395, 5561, 5596, 5430, 5559, 5593, 5594, 5427, 5563, 5597, 5598,
5431, 5398, 5564, 5599, 5433
1057, 5434, 5600, 5601, 5435, 5436, 5602, 5603, 5437, 5604, 5605, 5606, 5439, 5607, 5608, 5609,
5442, 5444, 5610, 5611, 5445
1058, 5436, 5602, 5603, 5437, 5446, 5612, 5613, 5447, 5607, 5608, 5609, 5442, 5614, 5615, 5616,
5449, 5451, 5617, 5618, 5452
1059, 5446, 5612, 5613, 5447, 5453, 5619, 5620, 5454, 5614, 5615, 5616, 5449, 5621, 5622, 5623,
5456, 5458, 5624, 5625, 5459
1060, 5453, 5619, 5620, 5454, 5460, 5626, 5627, 5461, 5621, 5622, 5623, 5456, 5628, 5629, 5630,
5463, 5465, 5631, 5632, 5466
1061, 5460, 5626, 5627, 5461, 5467, 5633, 5634, 5468, 5628, 5629, 5630, 5463, 5635, 5636, 5637,
5470, 5472, 5638, 5639, 5473
1062, 5467, 5633, 5634, 5468, 5474, 5640, 5641, 5475, 5635, 5636, 5637, 5470, 5642, 5643, 5644,
5477, 5479, 5645, 5646, 5480
1063, 5474, 5640, 5641, 5475, 5481, 5647, 5648, 5482, 5642, 5643, 5644, 5477, 5649, 5650, 5651,
5484, 5486, 5652, 5653, 5487
1064, 5481, 5647, 5648, 5482, 5488, 5654, 5655, 5489, 5649, 5650, 5651, 5484, 5656, 5657, 5658,
5491, 5493, 5659, 5660, 5494
1065, 5435, 5601, 5661, 5495, 5437, 5603, 5662, 5496, 5606, 5663, 5664, 5497, 5609, 5665, 5666,
5499, 5445, 5611, 5667, 5501
1066, 5437, 5603, 5662, 5496, 5447, 5613, 5668, 5502, 5609, 5665, 5666, 5499, 5616, 5669, 5670,
5503, 5452, 5618, 5671, 5505
1067, 5447, 5613, 5668, 5502, 5454, 5620, 5672, 5506, 5616, 5669, 5670, 5503, 5623, 5673, 5674,
5507, 5459, 5625, 5675, 5509
1068, 5454, 5620, 5672, 5506, 5461, 5627, 5676, 5510, 5623, 5673, 5674, 5507, 5630, 5677, 5678,
5511, 5466, 5632, 5679, 5513
1069, 5461, 5627, 5676, 5510, 5468, 5634, 5680, 5514, 5630, 5677, 5678, 5511, 5637, 5681, 5682,
5515, 5473, 5639, 5683, 5517
1070, 5468, 5634, 5680, 5514, 5475, 5641, 5684, 5518, 5637, 5681, 5682, 5515, 5644, 5685, 5686,
5519, 5480, 5646, 5687, 5521
1071, 5475, 5641, 5684, 5518, 5482, 5648, 5688, 5522, 5644, 5685, 5686, 5519, 5651, 5689, 5690,
5523, 5487, 5653, 5691, 5525
1072, 5482, 5648, 5688, 5522, 5489, 5655, 5692, 5526, 5651, 5689, 5690, 5523, 5658, 5693, 5694,
5527, 5494, 5660, 5695, 5529
1073, 5495, 5661, 5696, 5530, 5496, 5662, 5697, 5531, 5664, 5698, 5699, 5532, 5666, 5700, 5701,
5534, 5501, 5667, 5702, 5536
1074, 5496, 5662, 5697, 5531, 5502, 5668, 5703, 5537, 5666, 5700, 5701, 5534, 5670, 5704, 5705,
5538, 5505, 5671, 5706, 5540
1075, 5502, 5668, 5703, 5537, 5506, 5672, 5707, 5541, 5670, 5704, 5705, 5538, 5674, 5708, 5709,
5542, 5509, 5675, 5710, 5544
1076, 5506, 5672, 5707, 5541, 5510, 5676, 5711, 5545, 5674, 5708, 5709, 5542, 5678, 5712, 5713,
5546, 5513, 5679, 5714, 5548
1077, 5510, 5676, 5711, 5545, 5514, 5680, 5715, 5549, 5678, 5712, 5713, 5546, 5682, 5716, 5717,
5550, 5517, 5683, 5718, 5552
1078, 5514, 5680, 5715, 5549, 5518, 5684, 5719, 5553, 5682, 5716, 5717, 5550, 5686, 5720, 5721,
5554, 5521, 5687, 5722, 5556
1079, 5518, 5684, 5719, 5553, 5522, 5688, 5723, 5557, 5686, 5720, 5721, 5554, 5690, 5724, 5725,
5558, 5525, 5691, 5726, 5560
1080, 5522, 5688, 5723, 5557, 5526, 5692, 5727, 5561, 5690, 5724, 5725, 5558, 5694, 5728, 5729,
5562, 5529, 5695, 5730, 5564
1081, 5530, 5696, 5731, 5565, 5531, 5697, 5732, 5566, 5699, 5733, 5734, 5567, 5701, 5735, 5736,
5569, 5536, 5702, 5737, 5571
1082, 5531, 5697, 5732, 5566, 5537, 5703, 5738, 5572, 5701, 5735, 5736, 5569, 5705, 5739, 5740,
5573, 5540, 5706, 5741, 5575
1083, 5537, 5703, 5738, 5572, 5541, 5707, 5742, 5576, 5705, 5739, 5740, 5573, 5709, 5743, 5744,
5577, 5544, 5710, 5745, 5579
1084, 5541, 5707, 5742, 5576, 5545, 5711, 5746, 5580, 5709, 5743, 5744, 5577, 5713, 5747, 5748,
5581, 5548, 5714, 5749, 5583
1085, 5545, 5711, 5746, 5580, 5549, 5715, 5750, 5584, 5713, 5747, 5748, 5581, 5717, 5751, 5752,
5585, 5552, 5718, 5753, 5587
1086, 5549, 5715, 5750, 5584, 5553, 5719, 5754, 5588, 5717, 5751, 5752, 5585, 5721, 5755, 5756,
5589, 5556, 5722, 5757, 5591
1087, 5553, 5719, 5754, 5588, 5557, 5723, 5758, 5592, 5721, 5755, 5756, 5589, 5725, 5759, 5760,
5593, 5560, 5726, 5761, 5595
1088, 5557, 5723, 5758, 5592, 5561, 5727, 5762, 5596, 5725, 5759, 5760, 5593, 5729, 5763, 5764,
5597, 5564, 5730, 5765, 5599
1089, 5600, 5766, 5767, 5601, 5602, 5768, 5769, 5603, 5770, 5771, 5772, 5605, 5773, 5774, 5775,
5608, 5610, 5776, 5777, 5611
1090, 5602, 5768, 5769, 5603, 5612, 5778, 5779, 5613, 5773, 5774, 5775, 5608, 5780, 5781, 5782,
5615, 5617, 5783, 5784, 5618
1091, 5612, 5778, 5779, 5613, 5619, 5785, 5786, 5620, 5780, 5781, 5782, 5615, 5787, 5788, 5789,
5622, 5624, 5790, 5791, 5625
1092, 5619, 5785, 5786, 5620, 5626, 5792, 5793, 5627, 5787, 5788, 5789, 5622, 5794, 5795, 5796,
5629, 5631, 5797, 5798, 5632
1093, 5626, 5792, 5793, 5627, 5633, 5799, 5800, 5634, 5794, 5795, 5796, 5629, 5801, 5802, 5803,
5636, 5638, 5804, 5805, 5639
1094, 5633, 5799, 5800, 5634, 5640, 5806, 5807, 5641, 5801, 5802, 5803, 5636, 5808, 5809, 5810,
5643, 5645, 5811, 5812, 5646
1095, 5640, 5806, 5807, 5641, 5647, 5813, 5814, 5648, 5808, 5809, 5810, 5643, 5815, 5816, 5817,
5650, 5652, 5818, 5819, 5653
1096, 5647, 5813, 5814, 5648, 5654, 5820, 5821, 5655, 5815, 5816, 5817, 5650, 5822, 5823, 5824,
5657, 5659, 5825, 5826, 5660
1097, 5601, 5767, 5827, 5661, 5603, 5769, 5828, 5662, 5772, 5829, 5830, 5663, 5775, 5831, 5832,
5665, 5611, 5777, 5833, 5667
1098, 5603, 5769, 5828, 5662, 5613, 5779, 5834, 5668, 5775, 5831, 5832, 5665, 5782, 5835, 5836,
5669, 5618, 5784, 5837, 5671
1099, 5613, 5779, 5834, 5668, 5620, 5786, 5838, 5672, 5782, 5835, 5836, 5669, 5789, 5839, 5840,
5673, 5625, 5791, 5841, 5675
1100, 5620, 5786, 5838, 5672, 5627, 5793, 5842, 5676, 5789, 5839, 5840, 5673, 5796, 5843, 5844,
5677, 5632, 5798, 5845, 5679
1101, 5627, 5793, 5842, 5676, 5634, 5800, 5846, 5680, 5796, 5843, 5844, 5677, 5803, 5847, 5848,
5681, 5639, 5805, 5849, 5683
1102, 5634, 5800, 5846, 5680, 5641, 5807, 5850, 5684, 5803, 5847, 5848, 5681, 5810, 5851, 5852,
5685, 5646, 5812, 5853, 5687
1103, 5641, 5807, 5850, 5684, 5648, 5814, 5854, 5688, 5810, 5851, 5852, 5685, 5817, 5855, 5856,
5689, 5653, 5819, 5857, 5691
1104, 5648, 5814, 5854, 5688, 5655, 5821, 5858, 5692, 5817, 5855, 5856, 5689, 5824, 5859, 5860,
5693, 5660, 5826, 5861, 5695
1105, 5661, 5827, 5862, 5696, 5662, 5828, 5863, 5697, 5830, 5864, 5865, 5698, 5832, 5866, 5867,
5700, 5667, 5833, 5868, 5702
1106, 5662, 5828, 5863, 5697, 5668, 5834, 5869, 5703, 5832, 5866, 5867, 5700, 5836, 5870, 5871,
5704, 5671, 5837, 5872, 5706
1107, 5668, 5834, 5869, 5703, 5672, 5838, 5873, 5707, 5836, 5870, 5871, 5704, 5840, 5874, 5875,
5708, 5675, 5841, 5876, 5710
1108, 5672, 5838, 5873, 5707, 5676, 5842, 5877, 5711, 5840, 5874, 5875, 5708, 5844, 5878, 5879,
5712, 5679, 5845, 5880, 5714
1109, 5676, 5842, 5877, 5711, 5680, 5846, 5881, 5715, 5844, 5878, 5879, 5712, 5848, 5882, 5883,
5716, 5683, 5849, 5884, 5718
1110, 5680, 5846, 5881, 5715, 5684, 5850, 5885, 5719, 5848, 5882, 5883, 5716, 5852, 5886, 5887,
5720, 5687, 5853, 5888, 5722
1111, 5684, 5850, 5885, 5719, 5688, 5854, 5889, 5723, 5852, 5886, 5887, 5720, 5856, 5890, 5891,
5724, 5691, 5857, 5892, 5726
1112, 5688, 5854, 5889, 5723, 5692, 5858, 5893, 5727, 5856, 5890, 5891, 5724, 5860, 5894, 5895,
5728, 5695, 5861, 5896, 5730
1113, 5696, 5862, 5897, 5731, 5697, 5863, 5898, 5732, 5865, 5899, 5900, 5733, 5867, 5901, 5902,
5735, 5702, 5868, 5903, 5737
1114, 5697, 5863, 5898, 5732, 5703, 5869, 5904, 5738, 5867, 5901, 5902, 5735, 5871, 5905, 5906,
5739, 5706, 5872, 5907, 5741
1115, 5703, 5869, 5904, 5738, 5707, 5873, 5908, 5742, 5871, 5905, 5906, 5739, 5875, 5909, 5910,
5743, 5710, 5876, 5911, 5745
1116, 5707, 5873, 5908, 5742, 5711, 5877, 5912, 5746, 5875, 5909, 5910, 5743, 5879, 5913, 5914,
5747, 5714, 5880, 5915, 5749
1117, 5711, 5877, 5912, 5746, 5715, 5881, 5916, 5750, 5879, 5913, 5914, 5747, 5883, 5917, 5918,
5751, 5718, 5884, 5919, 5753
1118, 5715, 5881, 5916, 5750, 5719, 5885, 5920, 5754, 5883, 5917, 5918, 5751, 5887, 5921, 5922,
5755, 5722, 5888, 5923, 5757
1119, 5719, 5885, 5920, 5754, 5723, 5889, 5924, 5758, 5887, 5921, 5922, 5755, 5891, 5925, 5926,
5759, 5726, 5892, 5927, 5761
1120, 5723, 5889, 5924, 5758, 5727, 5893, 5928, 5762, 5891, 5925, 5926, 5759, 5895, 5929, 5930,
5763, 5730, 5896, 5931, 5765
1121, 5766, 5932, 5933, 5767, 5768, 5934, 5935, 5769, 5936, 5937, 5938, 5771, 5939, 5940, 5941,
5774, 5776, 5942, 5943, 5777
1122, 5768, 5934, 5935, 5769, 5778, 5944, 5945, 5779, 5939, 5940, 5941, 5774, 5946, 5947, 5948,
5781, 5783, 5949, 5950, 5784
1123, 5778, 5944, 5945, 5779, 5785, 5951, 5952, 5786, 5946, 5947, 5948, 5781, 5953, 5954, 5955,
5788, 5790, 5956, 5957, 5791
1124, 5785, 5951, 5952, 5786, 5792, 5958, 5959, 5793, 5953, 5954, 5955, 5788, 5960, 5961, 5962,
5795, 5797, 5963, 5964, 5798
1125, 5792, 5958, 5959, 5793, 5799, 5965, 5966, 5800, 5960, 5961, 5962, 5795, 5967, 5968, 5969,
5802, 5804, 5970, 5971, 5805
1126, 5799, 5965, 5966, 5800, 5806, 5972, 5973, 5807, 5967, 5968, 5969, 5802, 5974, 5975, 5976,
5809, 5811, 5977, 5978, 5812
1127, 5806, 5972, 5973, 5807, 5813, 5979, 5980, 5814, 5974, 5975, 5976, 5809, 5981, 5982, 5983,
5816, 5818, 5984, 5985, 5819
1128, 5813, 5979, 5980, 5814, 5820, 5986, 5987, 5821, 5981, 5982, 5983, 5816, 5988, 5989, 5990,
5823, 5825, 5991, 5992, 5826
1129, 5767, 5933, 5993, 5827, 5769, 5935, 5994, 5828, 5938, 5995, 5996, 5829, 5941, 5997, 5998,
5831, 5777, 5943, 5999, 5833
1130, 5769, 5935, 5994, 5828, 5779, 5945, 6000, 5834, 5941, 5997, 5998, 5831, 5948, 6001, 6002,
5835, 5784, 5950, 6003, 5837
1131, 5779, 5945, 6000, 5834, 5786, 5952, 6004, 5838, 5948, 6001, 6002, 5835, 5955, 6005, 6006,
5839, 5791, 5957, 6007, 5841
1132, 5786, 5952, 6004, 5838, 5793, 5959, 6008, 5842, 5955, 6005, 6006, 5839, 5962, 6009, 6010,
5843, 5798, 5964, 6011, 5845
1133, 5793, 5959, 6008, 5842, 5800, 5966, 6012, 5846, 5962, 6009, 6010, 5843, 5969, 6013, 6014,
5847, 5805, 5971, 6015, 5849
1134, 5800, 5966, 6012, 5846, 5807, 5973, 6016, 5850, 5969, 6013, 6014, 5847, 5976, 6017, 6018,
5851, 5812, 5978, 6019, 5853
1135, 5807, 5973, 6016, 5850, 5814, 5980, 6020, 5854, 5976, 6017, 6018, 5851, 5983, 6021, 6022,
5855, 5819, 5985, 6023, 5857
1136, 5814, 5980, 6020, 5854, 5821, 5987, 6024, 5858, 5983, 6021, 6022, 5855, 5990, 6025, 6026,
5859, 5826, 5992, 6027, 5861
1137, 5827, 5993, 6028, 5862, 5828, 5994, 6029, 5863, 5996, 6030, 6031, 5864, 5998, 6032, 6033,
5866, 5833, 5999, 6034, 5868
1138, 5828, 5994, 6029, 5863, 5834, 6000, 6035, 5869, 5998, 6032, 6033, 5866, 6002, 6036, 6037,
5870, 5837, 6003, 6038, 5872
1139, 5834, 6000, 6035, 5869, 5838, 6004, 6039, 5873, 6002, 6036, 6037, 5870, 6006, 6040, 6041,
5874, 5841, 6007, 6042, 5876
1140, 5838, 6004, 6039, 5873, 5842, 6008, 6043, 5877, 6006, 6040, 6041, 5874, 6010, 6044, 6045,
5878, 5845, 6011, 6046, 5880
1141, 5842, 6008, 6043, 5877, 5846, 6012, 6047, 5881, 6010, 6044, 6045, 5878, 6014, 6048, 6049,
5882, 5849, 6015, 6050, 5884
1142, 5846, 6012, 6047, 5881, 5850, 6016, 6051, 5885, 6014, 6048, 6049, 5882, 6018, 6052, 6053,
5886, 5853, 6019, 6054, 5888
1143, 5850, 6016, 6051, 5885, 5854, 6020, 6055, 5889, 6018, 6052, 6053, 5886, 6022, 6056, 6057,
5890, 5857, 6023, 6058, 5892
1144, 5854, 6020, 6055, 5889, 5858, 6024, 6059, 5893, 6022, 6056, 6057, 5890, 6026, 6060, 6061,
5894, 5861, 6027, 6062, 5896
1145, 5862, 6028, 6063, 5897, 5863, 6029, 6064, 5898, 6031, 6065, 6066, 5899, 6033, 6067, 6068,
5901, 5868, 6034, 6069, 5903
1146, 5863, 6029, 6064, 5898, 5869, 6035, 6070, 5904, 6033, 6067, 6068, 5901, 6037, 6071, 6072,
5905, 5872, 6038, 6073, 5907
1147, 5869, 6035, 6070, 5904, 5873, 6039, 6074, 5908, 6037, 6071, 6072, 5905, 6041, 6075, 6076,
5909, 5876, 6042, 6077, 5911
1148, 5873, 6039, 6074, 5908, 5877, 6043, 6078, 5912, 6041, 6075, 6076, 5909, 6045, 6079, 6080,
5913, 5880, 6046, 6081, 5915
1149, 5877, 6043, 6078, 5912, 5881, 6047, 6082, 5916, 6045, 6079, 6080, 5913, 6049, 6083, 6084,
5917, 5884, 6050, 6085, 5919
1150, 5881, 6047, 6082, 5916, 5885, 6051, 6086, 5920, 6049, 6083, 6084, 5917, 6053, 6087, 6088,
5921, 5888, 6054, 6089, 5923
1151, 5885, 6051, 6086, 5920, 5889, 6055, 6090, 5924, 6053, 6087, 6088, 5921, 6057, 6091, 6092,
5925, 5892, 6058, 6093, 5927
1152, 5889, 6055, 6090, 5924, 5893, 6059, 6094, 5928, 6057, 6091, 6092, 5925, 6061, 6095, 6096,
5929, 5896, 6062, 6097, 5931
1153, 5932, 6098, 6099, 5933, 5934, 6100, 6101, 5935, 6102, 6103, 6104, 5937, 6105, 6106, 6107,
5940, 5942, 6108, 6109, 5943
1154, 5934, 6100, 6101, 5935, 5944, 6110, 6111, 5945, 6105, 6106, 6107, 5940, 6112, 6113, 6114,
5947, 5949, 6115, 6116, 5950
1155, 5944, 6110, 6111, 5945, 5951, 6117, 6118, 5952, 6112, 6113, 6114, 5947, 6119, 6120, 6121,
5954, 5956, 6122, 6123, 5957
1156, 5951, 6117, 6118, 5952, 5958, 6124, 6125, 5959, 6119, 6120, 6121, 5954, 6126, 6127, 6128,
5961, 5963, 6129, 6130, 5964
1157, 5958, 6124, 6125, 5959, 5965, 6131, 6132, 5966, 6126, 6127, 6128, 5961, 6133, 6134, 6135,
5968, 5970, 6136, 6137, 5971
1158, 5965, 6131, 6132, 5966, 5972, 6138, 6139, 5973, 6133, 6134, 6135, 5968, 6140, 6141, 6142,
5975, 5977, 6143, 6144, 5978
1159, 5972, 6138, 6139, 5973, 5979, 6145, 6146, 5980, 6140, 6141, 6142, 5975, 6147, 6148, 6149,
5982, 5984, 6150, 6151, 5985
1160, 5979, 6145, 6146, 5980, 5986, 6152, 6153, 5987, 6147, 6148, 6149, 5982, 6154, 6155, 6156,
5989, 5991, 6157, 6158, 5992
1161, 5933, 6099, 6159, 5993, 5935, 6101, 6160, 5994, 6104, 6161, 6162, 5995, 6107, 6163, 6164,
5997, 5943, 6109, 6165, 5999
1162, 5935, 6101, 6160, 5994, 5945, 6111, 6166, 6000, 6107, 6163, 6164, 5997, 6114, 6167, 6168,
6001, 5950, 6116, 6169, 6003
1163, 5945, 6111, 6166, 6000, 5952, 6118, 6170, 6004, 6114, 6167, 6168, 6001, 6121, 6171, 6172,
6005, 5957, 6123, 6173, 6007
1164, 5952, 6118, 6170, 6004, 5959, 6125, 6174, 6008, 6121, 6171, 6172, 6005, 6128, 6175, 6176,
6009, 5964, 6130, 6177, 6011
1165, 5959, 6125, 6174, 6008, 5966, 6132, 6178, 6012, 6128, 6175, 6176, 6009, 6135, 6179, 6180,
6013, 5971, 6137, 6181, 6015
1166, 5966, 6132, 6178, 6012, 5973, 6139, 6182, 6016, 6135, 6179, 6180, 6013, 6142, 6183, 6184,
6017, 5978, 6144, 6185, 6019
1167, 5973, 6139, 6182, 6016, 5980, 6146, 6186, 6020, 6142, 6183, 6184, 6017, 6149, 6187, 6188,
6021, 5985, 6151, 6189, 6023
1168, 5980, 6146, 6186, 6020, 5987, 6153, 6190, 6024, 6149, 6187, 6188, 6021, 6156, 6191, 6192,
6025, 5992, 6158, 6193, 6027
1169, 5993, 6159, 6194, 6028, 5994, 6160, 6195, 6029, 6162, 6196, 6197, 6030, 6164, 6198, 6199,
6032, 5999, 6165, 6200, 6034
1170, 5994, 6160, 6195, 6029, 6000, 6166, 6201, 6035, 6164, 6198, 6199, 6032, 6168, 6202, 6203,
6036, 6003, 6169, 6204, 6038
1171, 6000, 6166, 6201, 6035, 6004, 6170, 6205, 6039, 6168, 6202, 6203, 6036, 6172, 6206, 6207,
6040, 6007, 6173, 6208, 6042
1172, 6004, 6170, 6205, 6039, 6008, 6174, 6209, 6043, 6172, 6206, 6207, 6040, 6176, 6210, 6211,
6044, 6011, 6177, 6212, 6046
1173, 6008, 6174, 6209, 6043, 6012, 6178, 6213, 6047, 6176, 6210, 6211, 6044, 6180, 6214, 6215,
6048, 6015, 6181, 6216, 6050
1174, 6012, 6178, 6213, 6047, 6016, 6182, 6217, 6051, 6180, 6214, 6215, 6048, 6184, 6218, 6219,
6052, 6019, 6185, 6220, 6054
1175, 6016, 6182, 6217, 6051, 6020, 6186, 6221, 6055, 6184, 6218, 6219, 6052, 6188, 6222, 6223,
6056, 6023, 6189, 6224, 6058
1176, 6020, 6186, 6221, 6055, 6024, 6190, 6225, 6059, 6188, 6222, 6223, 6056, 6192, 6226, 6227,
6060, 6027, 6193, 6228, 6062
1177, 6028, 6194, 6229, 6063, 6029, 6195, 6230, 6064, 6197, 6231, 6232, 6065, 6199, 6233, 6234,
6067, 6034, 6200, 6235, 6069
1178, 6029, 6195, 6230, 6064, 6035, 6201, 6236, 6070, 6199, 6233, 6234, 6067, 6203, 6237, 6238,
6071, 6038, 6204, 6239, 6073
1179, 6035, 6201, 6236, 6070, 6039, 6205, 6240, 6074, 6203, 6237, 6238, 6071, 6207, 6241, 6242,
6075, 6042, 6208, 6243, 6077
1180, 6039, 6205, 6240, 6074, 6043, 6209, 6244, 6078, 6207, 6241, 6242, 6075, 6211, 6245, 6246,
6079, 6046, 6212, 6247, 6081
1181, 6043, 6209, 6244, 6078, 6047, 6213, 6248, 6082, 6211, 6245, 6246, 6079, 6215, 6249, 6250,
6083, 6050, 6216, 6251, 6085
1182, 6047, 6213, 6248, 6082, 6051, 6217, 6252, 6086, 6215, 6249, 6250, 6083, 6219, 6253, 6254,
6087, 6054, 6220, 6255, 6089
1183, 6051, 6217, 6252, 6086, 6055, 6221, 6256, 6090, 6219, 6253, 6254, 6087, 6223, 6257, 6258,
6091, 6058, 6224, 6259, 6093
1184, 6055, 6221, 6256, 6090, 6059, 6225, 6260, 6094, 6223, 6257, 6258, 6091, 6227, 6261, 6262,
6095, 6062, 6228, 6263, 6097
1185, 6098, 6264, 6265, 6099, 6100, 6266, 6267, 6101, 6268, 6269, 6270, 6103, 6271, 6272, 6273,
6106, 6108, 6274, 6275, 6109
1186, 6100, 6266, 6267, 6101, 6110, 6276, 6277, 6111, 6271, 6272, 6273, 6106, 6278, 6279, 6280,
6113, 6115, 6281, 6282, 6116
1187, 6110, 6276, 6277, 6111, 6117, 6283, 6284, 6118, 6278, 6279, 6280, 6113, 6285, 6286, 6287,
6120, 6122, 6288, 6289, 6123
1188, 6117, 6283, 6284, 6118, 6124, 6290, 6291, 6125, 6285, 6286, 6287, 6120, 6292, 6293, 6294,
6127, 6129, 6295, 6296, 6130
1189, 6124, 6290, 6291, 6125, 6131, 6297, 6298, 6132, 6292, 6293, 6294, 6127, 6299, 6300, 6301,
6134, 6136, 6302, 6303, 6137
1190, 6131, 6297, 6298, 6132, 6138, 6304, 6305, 6139, 6299, 6300, 6301, 6134, 6306, 6307, 6308,
6141, 6143, 6309, 6310, 6144
1191, 6138, 6304, 6305, 6139, 6145, 6311, 6312, 6146, 6306, 6307, 6308, 6141, 6313, 6314, 6315,
6148, 6150, 6316, 6317, 6151
1192, 6145, 6311, 6312, 6146, 6152, 6318, 6319, 6153, 6313, 6314, 6315, 6148, 6320, 6321, 6322,
6155, 6157, 6323, 6324, 6158
1193, 6099, 6265, 6325, 6159, 6101, 6267, 6326, 6160, 6270, 6327, 6328, 6161, 6273, 6329, 6330,
6163, 6109, 6275, 6331, 6165
1194, 6101, 6267, 6326, 6160, 6111, 6277, 6332, 6166, 6273, 6329, 6330, 6163, 6280, 6333, 6334,
6167, 6116, 6282, 6335, 6169
1195, 6111, 6277, 6332, 6166, 6118, 6284, 6336, 6170, 6280, 6333, 6334, 6167, 6287, 6337, 6338,
6171, 6123, 6289, 6339, 6173
1196, 6118, 6284, 6336, 6170, 6125, 6291, 6340, 6174, 6287, 6337, 6338, 6171, 6294, 6341, 6342,
6175, 6130, 6296, 6343, 6177
1197, 6125, 6291, 6340, 6174, 6132, 6298, 6344, 6178, 6294, 6341, 6342, 6175, 6301, 6345, 6346,
6179, 6137, 6303, 6347, 6181
1198, 6132, 6298, 6344, 6178, 6139, 6305, 6348, 6182, 6301, 6345, 6346, 6179, 6308, 6349, 6350,
6183, 6144, 6310, 6351, 6185
1199, 6139, 6305, 6348, 6182, 6146, 6312, 6352, 6186, 6308, 6349, 6350, 6183, 6315, 6353, 6354,
6187, 6151, 6317, 6355, 6189
1200, 6146, 6312, 6352, 6186, 6153, 6319, 6356, 6190, 6315, 6353, 6354, 6187, 6322, 6357, 6358,
6191, 6158, 6324, 6359, 6193
1201, 6159, 6325, 6360, 6194, 6160, 6326, 6361, 6195, 6328, 6362, 6363, 6196, 6330, 6364, 6365,
6198, 6165, 6331, 6366, 6200
1202, 6160, 6326, 6361, 6195, 6166, 6332, 6367, 6201, 6330, 6364, 6365, 6198, 6334, 6368, 6369,
6202, 6169, 6335, 6370, 6204
1203, 6166, 6332, 6367, 6201, 6170, 6336, 6371, 6205, 6334, 6368, 6369, 6202, 6338, 6372, 6373,
6206, 6173, 6339, 6374, 6208
1204, 6170, 6336, 6371, 6205, 6174, 6340, 6375, 6209, 6338, 6372, 6373, 6206, 6342, 6376, 6377,
6210, 6177, 6343, 6378, 6212
1205, 6174, 6340, 6375, 6209, 6178, 6344, 6379, 6213, 6342, 6376, 6377, 6210, 6346, 6380, 6381,
6214, 6181, 6347, 6382, 6216
1206, 6178, 6344, 6379, 6213, 6182, 6348, 6383, 6217, 6346, 6380, 6381, 6214, 6350, 6384, 6385,
6218, 6185, 6351, 6386, 6220
1207, 6182, 6348, 6383, 6217, 6186, 6352, 6387, 6221, 6350, 6384, 6385, 6218, 6354, 6388, 6389,
6222, 6189, 6355, 6390, 6224
1208, 6186, 6352, 6387, 6221, 6190, 6356, 6391, 6225, 6354, 6388, 6389, 6222, 6358, 6392, 6393,
6226, 6193, 6359, 6394, 6228
1209, 6194, 6360, 6395, 6229, 6195, 6361, 6396, 6230, 6363, 6397, 6398, 6231, 6365, 6399, 6400,
6233, 6200, 6366, 6401, 6235
1210, 6195, 6361, 6396, 6230, 6201, 6367, 6402, 6236, 6365, 6399, 6400, 6233, 6369, 6403, 6404,
6237, 6204, 6370, 6405, 6239
1211, 6201, 6367, 6402, 6236, 6205, 6371, 6406, 6240, 6369, 6403, 6404, 6237, 6373, 6407, 6408,
6241, 6208, 6374, 6409, 6243
1212, 6205, 6371, 6406, 6240, 6209, 6375, 6410, 6244, 6373, 6407, 6408, 6241, 6377, 6411, 6412,
6245, 6212, 6378, 6413, 6247
1213, 6209, 6375, 6410, 6244, 6213, 6379, 6414, 6248, 6377, 6411, 6412, 6245, 6381, 6415, 6416,
6249, 6216, 6382, 6417, 6251
1214, 6213, 6379, 6414, 6248, 6217, 6383, 6418, 6252, 6381, 6415, 6416, 6249, 6385, 6419, 6420,
6253, 6220, 6386, 6421, 6255
1215, 6217, 6383, 6418, 6252, 6221, 6387, 6422, 6256, 6385, 6419, 6420, 6253, 6389, 6423, 6424,
6257, 6224, 6390, 6425, 6259
1216, 6221, 6387, 6422, 6256, 6225, 6391, 6426, 6260, 6389, 6423, 6424, 6257, 6393, 6427, 6428,
6261, 6228, 6394, 6429, 6263
1217, 6264, 6430, 6431, 6265, 6266, 6432, 6433, 6267, 6434, 6435, 6436, 6269, 6437, 6438, 6439,
6272, 6274, 6440, 6441, 6275
1218, 6266, 6432, 6433, 6267, 6276, 6442, 6443, 6277, 6437, 6438, 6439, 6272, 6444, 6445, 6446,
6279, 6281, 6447, 6448, 6282
1219, 6276, 6442, 6443, 6277, 6283, 6449, 6450, 6284, 6444, 6445, 6446, 6279, 6451, 6452, 6453,
6286, 6288, 6454, 6455, 6289
1220, 6283, 6449, 6450, 6284, 6290, 6456, 6457, 6291, 6451, 6452, 6453, 6286, 6458, 6459, 6460,
6293, 6295, 6461, 6462, 6296
1221, 6290, 6456, 6457, 6291, 6297, 6463, 6464, 6298, 6458, 6459, 6460, 6293, 6465, 6466, 6467,
6300, 6302, 6468, 6469, 6303
1222, 6297, 6463, 6464, 6298, 6304, 6470, 6471, 6305, 6465, 6466, 6467, 6300, 6472, 6473, 6474,
6307, 6309, 6475, 6476, 6310
1223, 6304, 6470, 6471, 6305, 6311, 6477, 6478, 6312, 6472, 6473, 6474, 6307, 6479, 6480, 6481,
6314, 6316, 6482, 6483, 6317
1224, 6311, 6477, 6478, 6312, 6318, 6484, 6485, 6319, 6479, 6480, 6481, 6314, 6486, 6487, 6488,
6321, 6323, 6489, 6490, 6324
1225, 6265, 6431, 6491, 6325, 6267, 6433, 6492, 6326, 6436, 6493, 6494, 6327, 6439, 6495, 6496,
6329, 6275, 6441, 6497, 6331
1226, 6267, 6433, 6492, 6326, 6277, 6443, 6498, 6332, 6439, 6495, 6496, 6329, 6446, 6499, 6500,
6333, 6282, 6448, 6501, 6335
1227, 6277, 6443, 6498, 6332, 6284, 6450, 6502, 6336, 6446, 6499, 6500, 6333, 6453, 6503, 6504,
6337, 6289, 6455, 6505, 6339
1228, 6284, 6450, 6502, 6336, 6291, 6457, 6506, 6340, 6453, 6503, 6504, 6337, 6460, 6507, 6508,
6341, 6296, 6462, 6509, 6343
1229, 6291, 6457, 6506, 6340, 6298, 6464, 6510, 6344, 6460, 6507, 6508, 6341, 6467, 6511, 6512,
6345, 6303, 6469, 6513, 6347
1230, 6298, 6464, 6510, 6344, 6305, 6471, 6514, 6348, 6467, 6511, 6512, 6345, 6474, 6515, 6516,
6349, 6310, 6476, 6517, 6351
1231, 6305, 6471, 6514, 6348, 6312, 6478, 6518, 6352, 6474, 6515, 6516, 6349, 6481, 6519, 6520,
6353, 6317, 6483, 6521, 6355
1232, 6312, 6478, 6518, 6352, 6319, 6485, 6522, 6356, 6481, 6519, 6520, 6353, 6488, 6523, 6524,
6357, 6324, 6490, 6525, 6359
1233, 6325, 6491, 6526, 6360, 6326, 6492, 6527, 6361, 6494, 6528, 6529, 6362, 6496, 6530, 6531,
6364, 6331, 6497, 6532, 6366
1234, 6326, 6492, 6527, 6361, 6332, 6498, 6533, 6367, 6496, 6530, 6531, 6364, 6500, 6534, 6535,
6368, 6335, 6501, 6536, 6370
1235, 6332, 6498, 6533, 6367, 6336, 6502, 6537, 6371, 6500, 6534, 6535, 6368, 6504, 6538, 6539,
6372, 6339, 6505, 6540, 6374
1236, 6336, 6502, 6537, 6371, 6340, 6506, 6541, 6375, 6504, 6538, 6539, 6372, 6508, 6542, 6543,
6376, 6343, 6509, 6544, 6378
1237, 6340, 6506, 6541, 6375, 6344, 6510, 6545, 6379, 6508, 6542, 6543, 6376, 6512, 6546, 6547,
6380, 6347, 6513, 6548, 6382
1238, 6344, 6510, 6545, 6379, 6348, 6514, 6549, 6383, 6512, 6546, 6547, 6380, 6516, 6550, 6551,
6384, 6351, 6517, 6552, 6386
1239, 6348, 6514, 6549, 6383, 6352, 6518, 6553, 6387, 6516, 6550, 6551, 6384, 6520, 6554, 6555,
6388, 6355, 6521, 6556, 6390
1240, 6352, 6518, 6553, 6387, 6356, 6522, 6557, 6391, 6520, 6554, 6555, 6388, 6524, 6558, 6559,
6392, 6359, 6525, 6560, 6394
1241, 6360, 6526, 6561, 6395, 6361, 6527, 6562, 6396, 6529, 6563, 6564, 6397, 6531, 6565, 6566,
6399, 6366, 6532, 6567, 6401
1242, 6361, 6527, 6562, 6396, 6367, 6533, 6568, 6402, 6531, 6565, 6566, 6399, 6535, 6569, 6570,
6403, 6370, 6536, 6571, 6405
1243, 6367, 6533, 6568, 6402, 6371, 6537, 6572, 6406, 6535, 6569, 6570, 6403, 6539, 6573, 6574,
6407, 6374, 6540, 6575, 6409
1244, 6371, 6537, 6572, 6406, 6375, 6541, 6576, 6410, 6539, 6573, 6574, 6407, 6543, 6577, 6578,
6411, 6378, 6544, 6579, 6413
1245, 6375, 6541, 6576, 6410, 6379, 6545, 6580, 6414, 6543, 6577, 6578, 6411, 6547, 6581, 6582,
6415, 6382, 6548, 6583, 6417
1246, 6379, 6545, 6580, 6414, 6383, 6549, 6584, 6418, 6547, 6581, 6582, 6415, 6551, 6585, 6586,
6419, 6386, 6552, 6587, 6421
1247, 6383, 6549, 6584, 6418, 6387, 6553, 6588, 6422, 6551, 6585, 6586, 6419, 6555, 6589, 6590,
6423, 6390, 6556, 6591, 6425
1248, 6387, 6553, 6588, 6422, 6391, 6557, 6592, 6426, 6555, 6589, 6590, 6423, 6559, 6593, 6594,
6427, 6394, 6560, 6595, 6429
1249, 6430, 6596, 6597, 6431, 6432, 6598, 6599, 6433, 6600, 6601, 6602, 6435, 6603, 6604, 6605,
6438, 6440, 6606, 6607, 6441
1250, 6432, 6598, 6599, 6433, 6442, 6608, 6609, 6443, 6603, 6604, 6605, 6438, 6610, 6611, 6612,
6445, 6447, 6613, 6614, 6448
1251, 6442, 6608, 6609, 6443, 6449, 6615, 6616, 6450, 6610, 6611, 6612, 6445, 6617, 6618, 6619,
6452, 6454, 6620, 6621, 6455
1252, 6449, 6615, 6616, 6450, 6456, 6622, 6623, 6457, 6617, 6618, 6619, 6452, 6624, 6625, 6626,
6459, 6461, 6627, 6628, 6462
1253, 6456, 6622, 6623, 6457, 6463, 6629, 6630, 6464, 6624, 6625, 6626, 6459, 6631, 6632, 6633,
6466, 6468, 6634, 6635, 6469
1254, 6463, 6629, 6630, 6464, 6470, 6636, 6637, 6471, 6631, 6632, 6633, 6466, 6638, 6639, 6640,
6473, 6475, 6641, 6642, 6476
1255, 6470, 6636, 6637, 6471, 6477, 6643, 6644, 6478, 6638, 6639, 6640, 6473, 6645, 6646, 6647,
6480, 6482, 6648, 6649, 6483
1256, 6477, 6643, 6644, 6478, 6484, 6650, 6651, 6485, 6645, 6646, 6647, 6480, 6652, 6653, 6654,
6487, 6489, 6655, 6656, 6490
1257, 6431, 6597, 6657, 6491, 6433, 6599, 6658, 6492, 6602, 6659, 6660, 6493, 6605, 6661, 6662,
6495, 6441, 6607, 6663, 6497
1258, 6433, 6599, 6658, 6492, 6443, 6609, 6664, 6498, 6605, 6661, 6662, 6495, 6612, 6665, 6666,
6499, 6448, 6614, 6667, 6501
1259, 6443, 6609, 6664, 6498, 6450, 6616, 6668, 6502, 6612, 6665, 6666, 6499, 6619, 6669, 6670,
6503, 6455, 6621, 6671, 6505
1260, 6450, 6616, 6668, 6502, 6457, 6623, 6672, 6506, 6619, 6669, 6670, 6503, 6626, 6673, 6674,
6507, 6462, 6628, 6675, 6509
1261, 6457, 6623, 6672, 6506, 6464, 6630, 6676, 6510, 6626, 6673, 6674, 6507, 6633, 6677, 6678,
6511, 6469, 6635, 6679, 6513
1262, 6464, 6630, 6676, 6510, 6471, 6637, 6680, 6514, 6633, 6677, 6678, 6511, 6640, 6681, 6682,
6515, 6476, 6642, 6683, 6517
1263, 6471, 6637, 6680, 6514, 6478, 6644, 6684, 6518, 6640, 6681, 6682, 6515, 6647, 6685, 6686,
6519, 6483, 6649, 6687, 6521
1264, 6478, 6644, 6684, 6518, 6485, 6651, 6688, 6522, 6647, 6685, 6686, 6519, 6654, 6689, 6690,
6523, 6490, 6656, 6691, 6525
1265, 6491, 6657, 6692, 6526, 6492, 6658, 6693, 6527, 6660, 6694, 6695, 6528, 6662, 6696, 6697,
6530, 6497, 6663, 6698, 6532
1266, 6492, 6658, 6693, 6527, 6498, 6664, 6699, 6533, 6662, 6696, 6697, 6530, 6666, 6700, 6701,
6534, 6501, 6667, 6702, 6536
1267, 6498, 6664, 6699, 6533, 6502, 6668, 6703, 6537, 6666, 6700, 6701, 6534, 6670, 6704, 6705,
6538, 6505, 6671, 6706, 6540
1268, 6502, 6668, 6703, 6537, 6506, 6672, 6707, 6541, 6670, 6704, 6705, 6538, 6674, 6708, 6709,
6542, 6509, 6675, 6710, 6544
1269, 6506, 6672, 6707, 6541, 6510, 6676, 6711, 6545, 6674, 6708, 6709, 6542, 6678, 6712, 6713,
6546, 6513, 6679, 6714, 6548
1270, 6510, 6676, 6711, 6545, 6514, 6680, 6715, 6549, 6678, 6712, 6713, 6546, 6682, 6716, 6717,
6550, 6517, 6683, 6718, 6552
1271, 6514, 6680, 6715, 6549, 6518, 6684, 6719, 6553, 6682, 6716, 6717, 6550, 6686, 6720, 6721,
6554, 6521, 6687, 6722, 6556
1272, 6518, 6684, 6719, 6553, 6522, 6688, 6723, 6557, 6686, 6720, 6721, 6554, 6690, 6724, 6725,
6558, 6525, 6691, 6726, 6560
1273, 6526, 6692, 6727, 6561, 6527, 6693, 6728, 6562, 6695, 6729, 6730, 6563, 6697, 6731, 6732,
6565, 6532, 6698, 6733, 6567
1274, 6527, 6693, 6728, 6562, 6533, 6699, 6734, 6568, 6697, 6731, 6732, 6565, 6701, 6735, 6736,
6569, 6536, 6702, 6737, 6571
1275, 6533, 6699, 6734, 6568, 6537, 6703, 6738, 6572, 6701, 6735, 6736, 6569, 6705, 6739, 6740,
6573, 6540, 6706, 6741, 6575
1276, 6537, 6703, 6738, 6572, 6541, 6707, 6742, 6576, 6705, 6739, 6740, 6573, 6709, 6743, 6744,
6577, 6544, 6710, 6745, 6579
1277, 6541, 6707, 6742, 6576, 6545, 6711, 6746, 6580, 6709, 6743, 6744, 6577, 6713, 6747, 6748,
6581, 6548, 6714, 6749, 6583
1278, 6545, 6711, 6746, 6580, 6549, 6715, 6750, 6584, 6713, 6747, 6748, 6581, 6717, 6751, 6752,
6585, 6552, 6718, 6753, 6587
1279, 6549, 6715, 6750, 6584, 6553, 6719, 6754, 6588, 6717, 6751, 6752, 6585, 6721, 6755, 6756,
6589, 6556, 6722, 6757, 6591
1280, 6553, 6719, 6754, 6588, 6557, 6723, 6758, 6592, 6721, 6755, 6756, 6589, 6725, 6759, 6760,
6593, 6560, 6726, 6761, 6595
1281, 6596, 6762, 6763, 6597, 6598, 6764, 6765, 6599, 6766, 6767, 6768, 6601, 6769, 6770, 6771,
6604, 6606, 6772, 6773, 6607
1282, 6598, 6764, 6765, 6599, 6608, 6774, 6775, 6609, 6769, 6770, 6771, 6604, 6776, 6777, 6778,
6611, 6613, 6779, 6780, 6614
1283, 6608, 6774, 6775, 6609, 6615, 6781, 6782, 6616, 6776, 6777, 6778, 6611, 6783, 6784, 6785,
6618, 6620, 6786, 6787, 6621
1284, 6615, 6781, 6782, 6616, 6622, 6788, 6789, 6623, 6783, 6784, 6785, 6618, 6790, 6791, 6792,
6625, 6627, 6793, 6794, 6628
1285, 6622, 6788, 6789, 6623, 6629, 6795, 6796, 6630, 6790, 6791, 6792, 6625, 6797, 6798, 6799,
6632, 6634, 6800, 6801, 6635
1286, 6629, 6795, 6796, 6630, 6636, 6802, 6803, 6637, 6797, 6798, 6799, 6632, 6804, 6805, 6806,
6639, 6641, 6807, 6808, 6642
1287, 6636, 6802, 6803, 6637, 6643, 6809, 6810, 6644, 6804, 6805, 6806, 6639, 6811, 6812, 6813,
6646, 6648, 6814, 6815, 6649
1288, 6643, 6809, 6810, 6644, 6650, 6816, 6817, 6651, 6811, 6812, 6813, 6646, 6818, 6819, 6820,
6653, 6655, 6821, 6822, 6656
1289, 6597, 6763, 6823, 6657, 6599, 6765, 6824, 6658, 6768, 6825, 6826, 6659, 6771, 6827, 6828,
6661, 6607, 6773, 6829, 6663
1290, 6599, 6765, 6824, 6658, 6609, 6775, 6830, 6664, 6771, 6827, 6828, 6661, 6778, 6831, 6832,
6665, 6614, 6780, 6833, 6667
1291, 6609, 6775, 6830, 6664, 6616, 6782, 6834, 6668, 6778, 6831, 6832, 6665, 6785, 6835, 6836,
6669, 6621, 6787, 6837, 6671
1292, 6616, 6782, 6834, 6668, 6623, 6789, 6838, 6672, 6785, 6835, 6836, 6669, 6792, 6839, 6840,
6673, 6628, 6794, 6841, 6675
1293, 6623, 6789, 6838, 6672, 6630, 6796, 6842, 6676, 6792, 6839, 6840, 6673, 6799, 6843, 6844,
6677, 6635, 6801, 6845, 6679
1294, 6630, 6796, 6842, 6676, 6637, 6803, 6846, 6680, 6799, 6843, 6844, 6677, 6806, 6847, 6848,
6681, 6642, 6808, 6849, 6683
1295, 6637, 6803, 6846, 6680, 6644, 6810, 6850, 6684, 6806, 6847, 6848, 6681, 6813, 6851, 6852,
6685, 6649, 6815, 6853, 6687
1296, 6644, 6810, 6850, 6684, 6651, 6817, 6854, 6688, 6813, 6851, 6852, 6685, 6820, 6855, 6856,
6689, 6656, 6822, 6857, 6691
1297, 6657, 6823, 6858, 6692, 6658, 6824, 6859, 6693, 6826, 6860, 6861, 6694, 6828, 6862, 6863,
6696, 6663, 6829, 6864, 6698
1298, 6658, 6824, 6859, 6693, 6664, 6830, 6865, 6699, 6828, 6862, 6863, 6696, 6832, 6866, 6867,
6700, 6667, 6833, 6868, 6702
1299, 6664, 6830, 6865, 6699, 6668, 6834, 6869, 6703, 6832, 6866, 6867, 6700, 6836, 6870, 6871,
6704, 6671, 6837, 6872, 6706
1300, 6668, 6834, 6869, 6703, 6672, 6838, 6873, 6707, 6836, 6870, 6871, 6704, 6840, 6874, 6875,
6708, 6675, 6841, 6876, 6710
1301, 6672, 6838, 6873, 6707, 6676, 6842, 6877, 6711, 6840, 6874, 6875, 6708, 6844, 6878, 6879,
6712, 6679, 6845, 6880, 6714
1302, 6676, 6842, 6877, 6711, 6680, 6846, 6881, 6715, 6844, 6878, 6879, 6712, 6848, 6882, 6883,
6716, 6683, 6849, 6884, 6718
1303, 6680, 6846, 6881, 6715, 6684, 6850, 6885, 6719, 6848, 6882, 6883, 6716, 6852, 6886, 6887,
6720, 6687, 6853, 6888, 6722
1304, 6684, 6850, 6885, 6719, 6688, 6854, 6889, 6723, 6852, 6886, 6887, 6720, 6856, 6890, 6891,
6724, 6691, 6857, 6892, 6726
1305, 6692, 6858, 6893, 6727, 6693, 6859, 6894, 6728, 6861, 6895, 6896, 6729, 6863, 6897, 6898,
6731, 6698, 6864, 6899, 6733
1306, 6693, 6859, 6894, 6728, 6699, 6865, 6900, 6734, 6863, 6897, 6898, 6731, 6867, 6901, 6902,
6735, 6702, 6868, 6903, 6737
1307, 6699, 6865, 6900, 6734, 6703, 6869, 6904, 6738, 6867, 6901, 6902, 6735, 6871, 6905, 6906,
6739, 6706, 6872, 6907, 6741
1308, 6703, 6869, 6904, 6738, 6707, 6873, 6908, 6742, 6871, 6905, 6906, 6739, 6875, 6909, 6910,
6743, 6710, 6876, 6911, 6745
1309, 6707, 6873, 6908, 6742, 6711, 6877, 6912, 6746, 6875, 6909, 6910, 6743, 6879, 6913, 6914,
6747, 6714, 6880, 6915, 6749
1310, 6711, 6877, 6912, 6746, 6715, 6881, 6916, 6750, 6879, 6913, 6914, 6747, 6883, 6917, 6918,
6751, 6718, 6884, 6919, 6753
1311, 6715, 6881, 6916, 6750, 6719, 6885, 6920, 6754, 6883, 6917, 6918, 6751, 6887, 6921, 6922,
6755, 6722, 6888, 6923, 6757
1312, 6719, 6885, 6920, 6754, 6723, 6889, 6924, 6758, 6887, 6921, 6922, 6755, 6891, 6925, 6926,
6759, 6726, 6892, 6927, 6761
1313, 6762, 6928, 6929, 6763, 6764, 6930, 6931, 6765, 6932, 6933, 6934, 6767, 6935, 6936, 6937,
6770, 6772, 6938, 6939, 6773
1314, 6764, 6930, 6931, 6765, 6774, 6940, 6941, 6775, 6935, 6936, 6937, 6770, 6942, 6943, 6944,
6777, 6779, 6945, 6946, 6780
1315, 6774, 6940, 6941, 6775, 6781, 6947, 6948, 6782, 6942, 6943, 6944, 6777, 6949, 6950, 6951,
6784, 6786, 6952, 6953, 6787
1316, 6781, 6947, 6948, 6782, 6788, 6954, 6955, 6789, 6949, 6950, 6951, 6784, 6956, 6957, 6958,
6791, 6793, 6959, 6960, 6794
1317, 6788, 6954, 6955, 6789, 6795, 6961, 6962, 6796, 6956, 6957, 6958, 6791, 6963, 6964, 6965,
6798, 6800, 6966, 6967, 6801
1318, 6795, 6961, 6962, 6796, 6802, 6968, 6969, 6803, 6963, 6964, 6965, 6798, 6970, 6971, 6972,
6805, 6807, 6973, 6974, 6808
1319, 6802, 6968, 6969, 6803, 6809, 6975, 6976, 6810, 6970, 6971, 6972, 6805, 6977, 6978, 6979,
6812, 6814, 6980, 6981, 6815
1320, 6809, 6975, 6976, 6810, 6816, 6982, 6983, 6817, 6977, 6978, 6979, 6812, 6984, 6985, 6986,
6819, 6821, 6987, 6988, 6822
1321, 6763, 6929, 6989, 6823, 6765, 6931, 6990, 6824, 6934, 6991, 6992, 6825, 6937, 6993, 6994,
6827, 6773, 6939, 6995, 6829
1322, 6765, 6931, 6990, 6824, 6775, 6941, 6996, 6830, 6937, 6993, 6994, 6827, 6944, 6997, 6998,
6831, 6780, 6946, 6999, 6833
1323, 6775, 6941, 6996, 6830, 6782, 6948, 7000, 6834, 6944, 6997, 6998, 6831, 6951, 7001, 7002,
6835, 6787, 6953, 7003, 6837
1324, 6782, 6948, 7000, 6834, 6789, 6955, 7004, 6838, 6951, 7001, 7002, 6835, 6958, 7005, 7006,
6839, 6794, 6960, 7007, 6841
1325, 6789, 6955, 7004, 6838, 6796, 6962, 7008, 6842, 6958, 7005, 7006, 6839, 6965, 7009, 7010,
6843, 6801, 6967, 7011, 6845
1326, 6796, 6962, 7008, 6842, 6803, 6969, 7012, 6846, 6965, 7009, 7010, 6843, 6972, 7013, 7014,
6847, 6808, 6974, 7015, 6849
1327, 6803, 6969, 7012, 6846, 6810, 6976, 7016, 6850, 6972, 7013, 7014, 6847, 6979, 7017, 7018,
6851, 6815, 6981, 7019, 6853
1328, 6810, 6976, 7016, 6850, 6817, 6983, 7020, 6854, 6979, 7017, 7018, 6851, 6986, 7021, 7022,
6855, 6822, 6988, 7023, 6857
1329, 6823, 6989, 7024, 6858, 6824, 6990, 7025, 6859, 6992, 7026, 7027, 6860, 6994, 7028, 7029,
6862, 6829, 6995, 7030, 6864
1330, 6824, 6990, 7025, 6859, 6830, 6996, 7031, 6865, 6994, 7028, 7029, 6862, 6998, 7032, 7033,
6866, 6833, 6999, 7034, 6868
1331, 6830, 6996, 7031, 6865, 6834, 7000, 7035, 6869, 6998, 7032, 7033, 6866, 7002, 7036, 7037,
6870, 6837, 7003, 7038, 6872
1332, 6834, 7000, 7035, 6869, 6838, 7004, 7039, 6873, 7002, 7036, 7037, 6870, 7006, 7040, 7041,
6874, 6841, 7007, 7042, 6876
1333, 6838, 7004, 7039, 6873, 6842, 7008, 7043, 6877, 7006, 7040, 7041, 6874, 7010, 7044, 7045,
6878, 6845, 7011, 7046, 6880
1334, 6842, 7008, 7043, 6877, 6846, 7012, 7047, 6881, 7010, 7044, 7045, 6878, 7014, 7048, 7049,
6882, 6849, 7015, 7050, 6884
1335, 6846, 7012, 7047, 6881, 6850, 7016, 7051, 6885, 7014, 7048, 7049, 6882, 7018, 7052, 7053,
6886, 6853, 7019, 7054, 6888
1336, 6850, 7016, 7051, 6885, 6854, 7020, 7055, 6889, 7018, 7052, 7053, 6886, 7022, 7056, 7057,
6890, 6857, 7023, 7058, 6892
1337, 6858, 7024, 7059, 6893, 6859, 7025, 7060, 6894, 7027, 7061, 7062, 6895, 7029, 7063, 7064,
6897, 6864, 7030, 7065, 6899
1338, 6859, 7025, 7060, 6894, 6865, 7031, 7066, 6900, 7029, 7063, 7064, 6897, 7033, 7067, 7068,
6901, 6868, 7034, 7069, 6903
1339, 6865, 7031, 7066, 6900, 6869, 7035, 7070, 6904, 7033, 7067, 7068, 6901, 7037, 7071, 7072,
6905, 6872, 7038, 7073, 6907
1340, 6869, 7035, 7070, 6904, 6873, 7039, 7074, 6908, 7037, 7071, 7072, 6905, 7041, 7075, 7076,
6909, 6876, 7042, 7077, 6911
1341, 6873, 7039, 7074, 6908, 6877, 7043, 7078, 6912, 7041, 7075, 7076, 6909, 7045, 7079, 7080,
6913, 6880, 7046, 7081, 6915
1342, 6877, 7043, 7078, 6912, 6881, 7047, 7082, 6916, 7045, 7079, 7080, 6913, 7049, 7083, 7084,
6917, 6884, 7050, 7085, 6919
1343, 6881, 7047, 7082, 6916, 6885, 7051, 7086, 6920, 7049, 7083, 7084, 6917, 7053, 7087, 7088,
6921, 6888, 7054, 7089, 6923
1344, 6885, 7051, 7086, 6920, 6889, 7055, 7090, 6924, 7053, 7087, 7088, 6921, 7057, 7091, 7092,
6925, 6892, 7058, 7093, 6927
1345, 6928, 7094, 7095, 6929, 6930, 7096, 7097, 6931, 7098, 7099, 7100, 6933, 7101, 7102, 7103,
6936, 6938, 7104, 7105, 6939
1346, 6930, 7096, 7097, 6931, 6940, 7106, 7107, 6941, 7101, 7102, 7103, 6936, 7108, 7109, 7110,
6943, 6945, 7111, 7112, 6946
1347, 6940, 7106, 7107, 6941, 6947, 7113, 7114, 6948, 7108, 7109, 7110, 6943, 7115, 7116, 7117,
6950, 6952, 7118, 7119, 6953
1348, 6947, 7113, 7114, 6948, 6954, 7120, 7121, 6955, 7115, 7116, 7117, 6950, 7122, 7123, 7124,
6957, 6959, 7125, 7126, 6960
1349, 6954, 7120, 7121, 6955, 6961, 7127, 7128, 6962, 7122, 7123, 7124, 6957, 7129, 7130, 7131,
6964, 6966, 7132, 7133, 6967
1350, 6961, 7127, 7128, 6962, 6968, 7134, 7135, 6969, 7129, 7130, 7131, 6964, 7136, 7137, 7138,
6971, 6973, 7139, 7140, 6974
1351, 6968, 7134, 7135, 6969, 6975, 7141, 7142, 6976, 7136, 7137, 7138, 6971, 7143, 7144, 7145,
6978, 6980, 7146, 7147, 6981
1352, 6975, 7141, 7142, 6976, 6982, 7148, 7149, 6983, 7143, 7144, 7145, 6978, 7150, 7151, 7152,
6985, 6987, 7153, 7154, 6988
1353, 6929, 7095, 7155, 6989, 6931, 7097, 7156, 6990, 7100, 7157, 7158, 6991, 7103, 7159, 7160,
6993, 6939, 7105, 7161, 6995
1354, 6931, 7097, 7156, 6990, 6941, 7107, 7162, 6996, 7103, 7159, 7160, 6993, 7110, 7163, 7164,
6997, 6946, 7112, 7165, 6999
1355, 6941, 7107, 7162, 6996, 6948, 7114, 7166, 7000, 7110, 7163, 7164, 6997, 7117, 7167, 7168,
7001, 6953, 7119, 7169, 7003
1356, 6948, 7114, 7166, 7000, 6955, 7121, 7170, 7004, 7117, 7167, 7168, 7001, 7124, 7171, 7172,
7005, 6960, 7126, 7173, 7007
1357, 6955, 7121, 7170, 7004, 6962, 7128, 7174, 7008, 7124, 7171, 7172, 7005, 7131, 7175, 7176,
7009, 6967, 7133, 7177, 7011
1358, 6962, 7128, 7174, 7008, 6969, 7135, 7178, 7012, 7131, 7175, 7176, 7009, 7138, 7179, 7180,
7013, 6974, 7140, 7181, 7015
1359, 6969, 7135, 7178, 7012, 6976, 7142, 7182, 7016, 7138, 7179, 7180, 7013, 7145, 7183, 7184,
7017, 6981, 7147, 7185, 7019
1360, 6976, 7142, 7182, 7016, 6983, 7149, 7186, 7020, 7145, 7183, 7184, 7017, 7152, 7187, 7188,
7021, 6988, 7154, 7189, 7023
1361, 6989, 7155, 7190, 7024, 6990, 7156, 7191, 7025, 7158, 7192, 7193, 7026, 7160, 7194, 7195,
7028, 6995, 7161, 7196, 7030
1362, 6990, 7156, 7191, 7025, 6996, 7162, 7197, 7031, 7160, 7194, 7195, 7028, 7164, 7198, 7199,
7032, 6999, 7165, 7200, 7034
1363, 6996, 7162, 7197, 7031, 7000, 7166, 7201, 7035, 7164, 7198, 7199, 7032, 7168, 7202, 7203,
7036, 7003, 7169, 7204, 7038
1364, 7000, 7166, 7201, 7035, 7004, 7170, 7205, 7039, 7168, 7202, 7203, 7036, 7172, 7206, 7207,
7040, 7007, 7173, 7208, 7042
1365, 7004, 7170, 7205, 7039, 7008, 7174, 7209, 7043, 7172, 7206, 7207, 7040, 7176, 7210, 7211,
7044, 7011, 7177, 7212, 7046
1366, 7008, 7174, 7209, 7043, 7012, 7178, 7213, 7047, 7176, 7210, 7211, 7044, 7180, 7214, 7215,
7048, 7015, 7181, 7216, 7050
1367, 7012, 7178, 7213, 7047, 7016, 7182, 7217, 7051, 7180, 7214, 7215, 7048, 7184, 7218, 7219,
7052, 7019, 7185, 7220, 7054
1368, 7016, 7182, 7217, 7051, 7020, 7186, 7221, 7055, 7184, 7218, 7219, 7052, 7188, 7222, 7223,
7056, 7023, 7189, 7224, 7058
1369, 7024, 7190, 7225, 7059, 7025, 7191, 7226, 7060, 7193, 7227, 7228, 7061, 7195, 7229, 7230,
7063, 7030, 7196, 7231, 7065
1370, 7025, 7191, 7226, 7060, 7031, 7197, 7232, 7066, 7195, 7229, 7230, 7063, 7199, 7233, 7234,
7067, 7034, 7200, 7235, 7069
1371, 7031, 7197, 7232, 7066, 7035, 7201, 7236, 7070, 7199, 7233, 7234, 7067, 7203, 7237, 7238,
7071, 7038, 7204, 7239, 7073
1372, 7035, 7201, 7236, 7070, 7039, 7205, 7240, 7074, 7203, 7237, 7238, 7071, 7207, 7241, 7242,
7075, 7042, 7208, 7243, 7077
1373, 7039, 7205, 7240, 7074, 7043, 7209, 7244, 7078, 7207, 7241, 7242, 7075, 7211, 7245, 7246,
7079, 7046, 7212, 7247, 7081
1374, 7043, 7209, 7244, 7078, 7047, 7213, 7248, 7082, 7211, 7245, 7246, 7079, 7215, 7249, 7250,
7083, 7050, 7216, 7251, 7085
1375, 7047, 7213, 7248, 7082, 7051, 7217, 7252, 7086, 7215, 7249, 7250, 7083, 7219, 7253, 7254,
7087, 7054, 7220, 7255, 7089
1376, 7051, 7217, 7252, 7086, 7055, 7221, 7256, 7090, 7219, 7253, 7254, 7087, 7223, 7257, 7258,
7091, 7058, 7224, 7259, 7093
1377, 7094, 7260, 7261, 7095, 7096, 7262, 7263, 7097, 7264, 7265, 7266, 7099, 7267, 7268, 7269,
7102, 7104, 7270, 7271, 7105
1378, 7096, 7262, 7263, 7097, 7106, 7272, 7273, 7107, 7267, 7268, 7269, 7102, 7274, 7275, 7276,
7109, 7111, 7277, 7278, 7112
1379, 7106, 7272, 7273, 7107, 7113, 7279, 7280, 7114, 7274, 7275, 7276, 7109, 7281, 7282, 7283,
7116, 7118, 7284, 7285, 7119
1380, 7113, 7279, 7280, 7114, 7120, 7286, 7287, 7121, 7281, 7282, 7283, 7116, 7288, 7289, 7290,
7123, 7125, 7291, 7292, 7126
1381, 7120, 7286, 7287, 7121, 7127, 7293, 7294, 7128, 7288, 7289, 7290, 7123, 7295, 7296, 7297,
7130, 7132, 7298, 7299, 7133
1382, 7127, 7293, 7294, 7128, 7134, 7300, 7301, 7135, 7295, 7296, 7297, 7130, 7302, 7303, 7304,
7137, 7139, 7305, 7306, 7140
1383, 7134, 7300, 7301, 7135, 7141, 7307, 7308, 7142, 7302, 7303, 7304, 7137, 7309, 7310, 7311,
7144, 7146, 7312, 7313, 7147
1384, 7141, 7307, 7308, 7142, 7148, 7314, 7315, 7149, 7309, 7310, 7311, 7144, 7316, 7317, 7318,
7151, 7153, 7319, 7320, 7154
1385, 7095, 7261, 7321, 7155, 7097, 7263, 7322, 7156, 7266, 7323, 7324, 7157, 7269, 7325, 7326,
7159, 7105, 7271, 7327, 7161
1386, 7097, 7263, 7322, 7156, 7107, 7273, 7328, 7162, 7269, 7325, 7326, 7159, 7276, 7329, 7330,
7163, 7112, 7278, 7331, 7165
1387, 7107, 7273, 7328, 7162, 7114, 7280, 7332, 7166, 7276, 7329, 7330, 7163, 7283, 7333, 7334,
7167, 7119, 7285, 7335, 7169
1388, 7114, 7280, 7332, 7166, 7121, 7287, 7336, 7170, 7283, 7333, 7334, 7167, 7290, 7337, 7338,
7171, 7126, 7292, 7339, 7173
1389, 7121, 7287, 7336, 7170, 7128, 7294, 7340, 7174, 7290, 7337, 7338, 7171, 7297, 7341, 7342,
7175, 7133, 7299, 7343, 7177
1390, 7128, 7294, 7340, 7174, 7135, 7301, 7344, 7178, 7297, 7341, 7342, 7175, 7304, 7345, 7346,
7179, 7140, 7306, 7347, 7181
1391, 7135, 7301, 7344, 7178, 7142, 7308, 7348, 7182, 7304, 7345, 7346, 7179, 7311, 7349, 7350,
7183, 7147, 7313, 7351, 7185
1392, 7142, 7308, 7348, 7182, 7149, 7315, 7352, 7186, 7311, 7349, 7350, 7183, 7318, 7353, 7354,
7187, 7154, 7320, 7355, 7189
1393, 7155, 7321, 7356, 7190, 7156, 7322, 7357, 7191, 7324, 7358, 7359, 7192, 7326, 7360, 7361,
7194, 7161, 7327, 7362, 7196
1394, 7156, 7322, 7357, 7191, 7162, 7328, 7363, 7197, 7326, 7360, 7361, 7194, 7330, 7364, 7365,
7198, 7165, 7331, 7366, 7200
1395, 7162, 7328, 7363, 7197, 7166, 7332, 7367, 7201, 7330, 7364, 7365, 7198, 7334, 7368, 7369,
7202, 7169, 7335, 7370, 7204
1396, 7166, 7332, 7367, 7201, 7170, 7336, 7371, 7205, 7334, 7368, 7369, 7202, 7338, 7372, 7373,
7206, 7173, 7339, 7374, 7208
1397, 7170, 7336, 7371, 7205, 7174, 7340, 7375, 7209, 7338, 7372, 7373, 7206, 7342, 7376, 7377,
7210, 7177, 7343, 7378, 7212
1398, 7174, 7340, 7375, 7209, 7178, 7344, 7379, 7213, 7342, 7376, 7377, 7210, 7346, 7380, 7381,
7214, 7181, 7347, 7382, 7216
1399, 7178, 7344, 7379, 7213, 7182, 7348, 7383, 7217, 7346, 7380, 7381, 7214, 7350, 7384, 7385,
7218, 7185, 7351, 7386, 7220
1400, 7182, 7348, 7383, 7217, 7186, 7352, 7387, 7221, 7350, 7384, 7385, 7218, 7354, 7388, 7389,
7222, 7189, 7355, 7390, 7224
1401, 7190, 7356, 7391, 7225, 7191, 7357, 7392, 7226, 7359, 7393, 7394, 7227, 7361, 7395, 7396,
7229, 7196, 7362, 7397, 7231
1402, 7191, 7357, 7392, 7226, 7197, 7363, 7398, 7232, 7361, 7395, 7396, 7229, 7365, 7399, 7400,
7233, 7200, 7366, 7401, 7235
1403, 7197, 7363, 7398, 7232, 7201, 7367, 7402, 7236, 7365, 7399, 7400, 7233, 7369, 7403, 7404,
7237, 7204, 7370, 7405, 7239
1404, 7201, 7367, 7402, 7236, 7205, 7371, 7406, 7240, 7369, 7403, 7404, 7237, 7373, 7407, 7408,
7241, 7208, 7374, 7409, 7243
1405, 7205, 7371, 7406, 7240, 7209, 7375, 7410, 7244, 7373, 7407, 7408, 7241, 7377, 7411, 7412,
7245, 7212, 7378, 7413, 7247
1406, 7209, 7375, 7410, 7244, 7213, 7379, 7414, 7248, 7377, 7411, 7412, 7245, 7381, 7415, 7416,
7249, 7216, 7382, 7417, 7251
1407, 7213, 7379, 7414, 7248, 7217, 7383, 7418, 7252, 7381, 7415, 7416, 7249, 7385, 7419, 7420,
7253, 7220, 7386, 7421, 7255
1408, 7217, 7383, 7418, 7252, 7221, 7387, 7422, 7256, 7385, 7419, 7420, 7253, 7389, 7423, 7424,
7257, 7224, 7390, 7425, 7259
1409, 7260, 7426, 7427, 7261, 7262, 7428, 7429, 7263, 7430, 7431, 7432, 7265, 7433, 7434, 7435,
7268, 7270, 7436, 7437, 7271
1410, 7262, 7428, 7429, 7263, 7272, 7438, 7439, 7273, 7433, 7434, 7435, 7268, 7440, 7441, 7442,
7275, 7277, 7443, 7444, 7278
1411, 7272, 7438, 7439, 7273, 7279, 7445, 7446, 7280, 7440, 7441, 7442, 7275, 7447, 7448, 7449,
7282, 7284, 7450, 7451, 7285
1412, 7279, 7445, 7446, 7280, 7286, 7452, 7453, 7287, 7447, 7448, 7449, 7282, 7454, 7455, 7456,
7289, 7291, 7457, 7458, 7292
1413, 7286, 7452, 7453, 7287, 7293, 7459, 7460, 7294, 7454, 7455, 7456, 7289, 7461, 7462, 7463,
7296, 7298, 7464, 7465, 7299
1414, 7293, 7459, 7460, 7294, 7300, 7466, 7467, 7301, 7461, 7462, 7463, 7296, 7468, 7469, 7470,
7303, 7305, 7471, 7472, 7306
1415, 7300, 7466, 7467, 7301, 7307, 7473, 7474, 7308, 7468, 7469, 7470, 7303, 7475, 7476, 7477,
7310, 7312, 7478, 7479, 7313
1416, 7307, 7473, 7474, 7308, 7314, 7480, 7481, 7315, 7475, 7476, 7477, 7310, 7482, 7483, 7484,
7317, 7319, 7485, 7486, 7320
1417, 7261, 7427, 7487, 7321, 7263, 7429, 7488, 7322, 7432, 7489, 7490, 7323, 7435, 7491, 7492,
7325, 7271, 7437, 7493, 7327
1418, 7263, 7429, 7488, 7322, 7273, 7439, 7494, 7328, 7435, 7491, 7492, 7325, 7442, 7495, 7496,
7329, 7278, 7444, 7497, 7331
1419, 7273, 7439, 7494, 7328, 7280, 7446, 7498, 7332, 7442, 7495, 7496, 7329, 7449, 7499, 7500,
7333, 7285, 7451, 7501, 7335
1420, 7280, 7446, 7498, 7332, 7287, 7453, 7502, 7336, 7449, 7499, 7500, 7333, 7456, 7503, 7504,
7337, 7292, 7458, 7505, 7339
1421, 7287, 7453, 7502, 7336, 7294, 7460, 7506, 7340, 7456, 7503, 7504, 7337, 7463, 7507, 7508,
7341, 7299, 7465, 7509, 7343
1422, 7294, 7460, 7506, 7340, 7301, 7467, 7510, 7344, 7463, 7507, 7508, 7341, 7470, 7511, 7512,
7345, 7306, 7472, 7513, 7347
1423, 7301, 7467, 7510, 7344, 7308, 7474, 7514, 7348, 7470, 7511, 7512, 7345, 7477, 7515, 7516,
7349, 7313, 7479, 7517, 7351
1424, 7308, 7474, 7514, 7348, 7315, 7481, 7518, 7352, 7477, 7515, 7516, 7349, 7484, 7519, 7520,
7353, 7320, 7486, 7521, 7355
1425, 7321, 7487, 7522, 7356, 7322, 7488, 7523, 7357, 7490, 7524, 7525, 7358, 7492, 7526, 7527,
7360, 7327, 7493, 7528, 7362
1426, 7322, 7488, 7523, 7357, 7328, 7494, 7529, 7363, 7492, 7526, 7527, 7360, 7496, 7530, 7531,
7364, 7331, 7497, 7532, 7366
1427, 7328, 7494, 7529, 7363, 7332, 7498, 7533, 7367, 7496, 7530, 7531, 7364, 7500, 7534, 7535,
7368, 7335, 7501, 7536, 7370
1428, 7332, 7498, 7533, 7367, 7336, 7502, 7537, 7371, 7500, 7534, 7535, 7368, 7504, 7538, 7539,
7372, 7339, 7505, 7540, 7374
1429, 7336, 7502, 7537, 7371, 7340, 7506, 7541, 7375, 7504, 7538, 7539, 7372, 7508, 7542, 7543,
7376, 7343, 7509, 7544, 7378
1430, 7340, 7506, 7541, 7375, 7344, 7510, 7545, 7379, 7508, 7542, 7543, 7376, 7512, 7546, 7547,
7380, 7347, 7513, 7548, 7382
1431, 7344, 7510, 7545, 7379, 7348, 7514, 7549, 7383, 7512, 7546, 7547, 7380, 7516, 7550, 7551,
7384, 7351, 7517, 7552, 7386
1432, 7348, 7514, 7549, 7383, 7352, 7518, 7553, 7387, 7516, 7550, 7551, 7384, 7520, 7554, 7555,
7388, 7355, 7521, 7556, 7390
1433, 7356, 7522, 7557, 7391, 7357, 7523, 7558, 7392, 7525, 7559, 7560, 7393, 7527, 7561, 7562,
7395, 7362, 7528, 7563, 7397
1434, 7357, 7523, 7558, 7392, 7363, 7529, 7564, 7398, 7527, 7561, 7562, 7395, 7531, 7565, 7566,
7399, 7366, 7532, 7567, 7401
1435, 7363, 7529, 7564, 7398, 7367, 7533, 7568, 7402, 7531, 7565, 7566, 7399, 7535, 7569, 7570,
7403, 7370, 7536, 7571, 7405
1436, 7367, 7533, 7568, 7402, 7371, 7537, 7572, 7406, 7535, 7569, 7570, 7403, 7539, 7573, 7574,
7407, 7374, 7540, 7575, 7409
1437, 7371, 7537, 7572, 7406, 7375, 7541, 7576, 7410, 7539, 7573, 7574, 7407, 7543, 7577, 7578,
7411, 7378, 7544, 7579, 7413
1438, 7375, 7541, 7576, 7410, 7379, 7545, 7580, 7414, 7543, 7577, 7578, 7411, 7547, 7581, 7582,
7415, 7382, 7548, 7583, 7417
1439, 7379, 7545, 7580, 7414, 7383, 7549, 7584, 7418, 7547, 7581, 7582, 7415, 7551, 7585, 7586,
7419, 7386, 7552, 7587, 7421
1440, 7383, 7549, 7584, 7418, 7387, 7553, 7588, 7422, 7551, 7585, 7586, 7419, 7555, 7589, 7590,
7423, 7390, 7556, 7591, 7425
1441, 7426, 7592, 7593, 7427, 7428, 7594, 7595, 7429, 7596, 7597, 7598, 7431, 7599, 7600, 7601,
7434, 7436, 7602, 7603, 7437
1442, 7428, 7594, 7595, 7429, 7438, 7604, 7605, 7439, 7599, 7600, 7601, 7434, 7606, 7607, 7608,
7441, 7443, 7609, 7610, 7444
1443, 7438, 7604, 7605, 7439, 7445, 7611, 7612, 7446, 7606, 7607, 7608, 7441, 7613, 7614, 7615,
7448, 7450, 7616, 7617, 7451
1444, 7445, 7611, 7612, 7446, 7452, 7618, 7619, 7453, 7613, 7614, 7615, 7448, 7620, 7621, 7622,
7455, 7457, 7623, 7624, 7458
1445, 7452, 7618, 7619, 7453, 7459, 7625, 7626, 7460, 7620, 7621, 7622, 7455, 7627, 7628, 7629,
7462, 7464, 7630, 7631, 7465
1446, 7459, 7625, 7626, 7460, 7466, 7632, 7633, 7467, 7627, 7628, 7629, 7462, 7634, 7635, 7636,
7469, 7471, 7637, 7638, 7472
1447, 7466, 7632, 7633, 7467, 7473, 7639, 7640, 7474, 7634, 7635, 7636, 7469, 7641, 7642, 7643,
7476, 7478, 7644, 7645, 7479
1448, 7473, 7639, 7640, 7474, 7480, 7646, 7647, 7481, 7641, 7642, 7643, 7476, 7648, 7649, 7650,
7483, 7485, 7651, 7652, 7486
1449, 7427, 7593, 7653, 7487, 7429, 7595, 7654, 7488, 7598, 7655, 7656, 7489, 7601, 7657, 7658,
7491, 7437, 7603, 7659, 7493
1450, 7429, 7595, 7654, 7488, 7439, 7605, 7660, 7494, 7601, 7657, 7658, 7491, 7608, 7661, 7662,
7495, 7444, 7610, 7663, 7497
1451, 7439, 7605, 7660, 7494, 7446, 7612, 7664, 7498, 7608, 7661, 7662, 7495, 7615, 7665, 7666,
7499, 7451, 7617, 7667, 7501
1452, 7446, 7612, 7664, 7498, 7453, 7619, 7668, 7502, 7615, 7665, 7666, 7499, 7622, 7669, 7670,
7503, 7458, 7624, 7671, 7505
1453, 7453, 7619, 7668, 7502, 7460, 7626, 7672, 7506, 7622, 7669, 7670, 7503, 7629, 7673, 7674,
7507, 7465, 7631, 7675, 7509
1454, 7460, 7626, 7672, 7506, 7467, 7633, 7676, 7510, 7629, 7673, 7674, 7507, 7636, 7677, 7678,
7511, 7472, 7638, 7679, 7513
1455, 7467, 7633, 7676, 7510, 7474, 7640, 7680, 7514, 7636, 7677, 7678, 7511, 7643, 7681, 7682,
7515, 7479, 7645, 7683, 7517
1456, 7474, 7640, 7680, 7514, 7481, 7647, 7684, 7518, 7643, 7681, 7682, 7515, 7650, 7685, 7686,
7519, 7486, 7652, 7687, 7521
1457, 7487, 7653, 7688, 7522, 7488, 7654, 7689, 7523, 7656, 7690, 7691, 7524, 7658, 7692, 7693,
7526, 7493, 7659, 7694, 7528
1458, 7488, 7654, 7689, 7523, 7494, 7660, 7695, 7529, 7658, 7692, 7693, 7526, 7662, 7696, 7697,
7530, 7497, 7663, 7698, 7532
1459, 7494, 7660, 7695, 7529, 7498, 7664, 7699, 7533, 7662, 7696, 7697, 7530, 7666, 7700, 7701,
7534, 7501, 7667, 7702, 7536
1460, 7498, 7664, 7699, 7533, 7502, 7668, 7703, 7537, 7666, 7700, 7701, 7534, 7670, 7704, 7705,
7538, 7505, 7671, 7706, 7540
1461, 7502, 7668, 7703, 7537, 7506, 7672, 7707, 7541, 7670, 7704, 7705, 7538, 7674, 7708, 7709,
7542, 7509, 7675, 7710, 7544
1462, 7506, 7672, 7707, 7541, 7510, 7676, 7711, 7545, 7674, 7708, 7709, 7542, 7678, 7712, 7713,
7546, 7513, 7679, 7714, 7548
1463, 7510, 7676, 7711, 7545, 7514, 7680, 7715, 7549, 7678, 7712, 7713, 7546, 7682, 7716, 7717,
7550, 7517, 7683, 7718, 7552
1464, 7514, 7680, 7715, 7549, 7518, 7684, 7719, 7553, 7682, 7716, 7717, 7550, 7686, 7720, 7721,
7554, 7521, 7687, 7722, 7556
1465, 7522, 7688, 7723, 7557, 7523, 7689, 7724, 7558, 7691, 7725, 7726, 7559, 7693, 7727, 7728,
7561, 7528, 7694, 7729, 7563
1466, 7523, 7689, 7724, 7558, 7529, 7695, 7730, 7564, 7693, 7727, 7728, 7561, 7697, 7731, 7732,
7565, 7532, 7698, 7733, 7567
1467, 7529, 7695, 7730, 7564, 7533, 7699, 7734, 7568, 7697, 7731, 7732, 7565, 7701, 7735, 7736,
7569, 7536, 7702, 7737, 7571
1468, 7533, 7699, 7734, 7568, 7537, 7703, 7738, 7572, 7701, 7735, 7736, 7569, 7705, 7739, 7740,
7573, 7540, 7706, 7741, 7575
1469, 7537, 7703, 7738, 7572, 7541, 7707, 7742, 7576, 7705, 7739, 7740, 7573, 7709, 7743, 7744,
7577, 7544, 7710, 7745, 7579
1470, 7541, 7707, 7742, 7576, 7545, 7711, 7746, 7580, 7709, 7743, 7744, 7577, 7713, 7747, 7748,
7581, 7548, 7714, 7749, 7583
1471, 7545, 7711, 7746, 7580, 7549, 7715, 7750, 7584, 7713, 7747, 7748, 7581, 7717, 7751, 7752,
7585, 7552, 7718, 7753, 7587
1472, 7549, 7715, 7750, 7584, 7553, 7719, 7754, 7588, 7717, 7751, 7752, 7585, 7721, 7755, 7756,
7589, 7556, 7722, 7757, 7591
1473, 7592, 7758, 7759, 7593, 7594, 7760, 7761, 7595, 7762, 7763, 7764, 7597, 7765, 7766, 7767,
7600, 7602, 7768, 7769, 7603
1474, 7594, 7760, 7761, 7595, 7604, 7770, 7771, 7605, 7765, 7766, 7767, 7600, 7772, 7773, 7774,
7607, 7609, 7775, 7776, 7610
1475, 7604, 7770, 7771, 7605, 7611, 7777, 7778, 7612, 7772, 7773, 7774, 7607, 7779, 7780, 7781,
7614, 7616, 7782, 7783, 7617
1476, 7611, 7777, 7778, 7612, 7618, 7784, 7785, 7619, 7779, 7780, 7781, 7614, 7786, 7787, 7788,
7621, 7623, 7789, 7790, 7624
1477, 7618, 7784, 7785, 7619, 7625, 7791, 7792, 7626, 7786, 7787, 7788, 7621, 7793, 7794, 7795,
7628, 7630, 7796, 7797, 7631
1478, 7625, 7791, 7792, 7626, 7632, 7798, 7799, 7633, 7793, 7794, 7795, 7628, 7800, 7801, 7802,
7635, 7637, 7803, 7804, 7638
1479, 7632, 7798, 7799, 7633, 7639, 7805, 7806, 7640, 7800, 7801, 7802, 7635, 7807, 7808, 7809,
7642, 7644, 7810, 7811, 7645
1480, 7639, 7805, 7806, 7640, 7646, 7812, 7813, 7647, 7807, 7808, 7809, 7642, 7814, 7815, 7816,
7649, 7651, 7817, 7818, 7652
1481, 7593, 7759, 7819, 7653, 7595, 7761, 7820, 7654, 7764, 7821, 7822, 7655, 7767, 7823, 7824,
7657, 7603, 7769, 7825, 7659
1482, 7595, 7761, 7820, 7654, 7605, 7771, 7826, 7660, 7767, 7823, 7824, 7657, 7774, 7827, 7828,
7661, 7610, 7776, 7829, 7663
1483, 7605, 7771, 7826, 7660, 7612, 7778, 7830, 7664, 7774, 7827, 7828, 7661, 7781, 7831, 7832,
7665, 7617, 7783, 7833, 7667
1484, 7612, 7778, 7830, 7664, 7619, 7785, 7834, 7668, 7781, 7831, 7832, 7665, 7788, 7835, 7836,
7669, 7624, 7790, 7837, 7671
1485, 7619, 7785, 7834, 7668, 7626, 7792, 7838, 7672, 7788, 7835, 7836, 7669, 7795, 7839, 7840,
7673, 7631, 7797, 7841, 7675
1486, 7626, 7792, 7838, 7672, 7633, 7799, 7842, 7676, 7795, 7839, 7840, 7673, 7802, 7843, 7844,
7677, 7638, 7804, 7845, 7679
1487, 7633, 7799, 7842, 7676, 7640, 7806, 7846, 7680, 7802, 7843, 7844, 7677, 7809, 7847, 7848,
7681, 7645, 7811, 7849, 7683
1488, 7640, 7806, 7846, 7680, 7647, 7813, 7850, 7684, 7809, 7847, 7848, 7681, 7816, 7851, 7852,
7685, 7652, 7818, 7853, 7687
1489, 7653, 7819, 7854, 7688, 7654, 7820, 7855, 7689, 7822, 7856, 7857, 7690, 7824, 7858, 7859,
7692, 7659, 7825, 7860, 7694
1490, 7654, 7820, 7855, 7689, 7660, 7826, 7861, 7695, 7824, 7858, 7859, 7692, 7828, 7862, 7863,
7696, 7663, 7829, 7864, 7698
1491, 7660, 7826, 7861, 7695, 7664, 7830, 7865, 7699, 7828, 7862, 7863, 7696, 7832, 7866, 7867,
7700, 7667, 7833, 7868, 7702
1492, 7664, 7830, 7865, 7699, 7668, 7834, 7869, 7703, 7832, 7866, 7867, 7700, 7836, 7870, 7871,
7704, 7671, 7837, 7872, 7706
1493, 7668, 7834, 7869, 7703, 7672, 7838, 7873, 7707, 7836, 7870, 7871, 7704, 7840, 7874, 7875,
7708, 7675, 7841, 7876, 7710
1494, 7672, 7838, 7873, 7707, 7676, 7842, 7877, 7711, 7840, 7874, 7875, 7708, 7844, 7878, 7879,
7712, 7679, 7845, 7880, 7714
1495, 7676, 7842, 7877, 7711, 7680, 7846, 7881, 7715, 7844, 7878, 7879, 7712, 7848, 7882, 7883,
7716, 7683, 7849, 7884, 7718
1496, 7680, 7846, 7881, 7715, 7684, 7850, 7885, 7719, 7848, 7882, 7883, 7716, 7852, 7886, 7887,
7720, 7687, 7853, 7888, 7722
1497, 7688, 7854, 7889, 7723, 7689, 7855, 7890, 7724, 7857, 7891, 7892, 7725, 7859, 7893, 7894,
7727, 7694, 7860, 7895, 7729
1498, 7689, 7855, 7890, 7724, 7695, 7861, 7896, 7730, 7859, 7893, 7894, 7727, 7863, 7897, 7898,
7731, 7698, 7864, 7899, 7733
1499, 7695, 7861, 7896, 7730, 7699, 7865, 7900, 7734, 7863, 7897, 7898, 7731, 7867, 7901, 7902,
7735, 7702, 7868, 7903, 7737
1500, 7699, 7865, 7900, 7734, 7703, 7869, 7904, 7738, 7867, 7901, 7902, 7735, 7871, 7905, 7906,
7739, 7706, 7872, 7907, 7741
1501, 7703, 7869, 7904, 7738, 7707, 7873, 7908, 7742, 7871, 7905, 7906, 7739, 7875, 7909, 7910,
7743, 7710, 7876, 7911, 7745
1502, 7707, 7873, 7908, 7742, 7711, 7877, 7912, 7746, 7875, 7909, 7910, 7743, 7879, 7913, 7914,
7747, 7714, 7880, 7915, 7749
1503, 7711, 7877, 7912, 7746, 7715, 7881, 7916, 7750, 7879, 7913, 7914, 7747, 7883, 7917, 7918,
7751, 7718, 7884, 7919, 7753
1504, 7715, 7881, 7916, 7750, 7719, 7885, 7920, 7754, 7883, 7917, 7918, 7751, 7887, 7921, 7922,
7755, 7722, 7888, 7923, 7757
1505, 7758, 7924, 7925, 7759, 7760, 7926, 7927, 7761, 7928, 7929, 7930, 7763, 7931, 7932, 7933,
7766, 7768, 7934, 7935, 7769
1506, 7760, 7926, 7927, 7761, 7770, 7936, 7937, 7771, 7931, 7932, 7933, 7766, 7938, 7939, 7940,
7773, 7775, 7941, 7942, 7776
1507, 7770, 7936, 7937, 7771, 7777, 7943, 7944, 7778, 7938, 7939, 7940, 7773, 7945, 7946, 7947,
7780, 7782, 7948, 7949, 7783
1508, 7777, 7943, 7944, 7778, 7784, 7950, 7951, 7785, 7945, 7946, 7947, 7780, 7952, 7953, 7954,
7787, 7789, 7955, 7956, 7790
1509, 7784, 7950, 7951, 7785, 7791, 7957, 7958, 7792, 7952, 7953, 7954, 7787, 7959, 7960, 7961,
7794, 7796, 7962, 7963, 7797
1510, 7791, 7957, 7958, 7792, 7798, 7964, 7965, 7799, 7959, 7960, 7961, 7794, 7966, 7967, 7968,
7801, 7803, 7969, 7970, 7804
1511, 7798, 7964, 7965, 7799, 7805, 7971, 7972, 7806, 7966, 7967, 7968, 7801, 7973, 7974, 7975,
7808, 7810, 7976, 7977, 7811
1512, 7805, 7971, 7972, 7806, 7812, 7978, 7979, 7813, 7973, 7974, 7975, 7808, 7980, 7981, 7982,
7815, 7817, 7983, 7984, 7818
1513, 7759, 7925, 7985, 7819, 7761, 7927, 7986, 7820, 7930, 7987, 7988, 7821, 7933, 7989, 7990,
7823, 7769, 7935, 7991, 7825
1514, 7761, 7927, 7986, 7820, 7771, 7937, 7992, 7826, 7933, 7989, 7990, 7823, 7940, 7993, 7994,
7827, 7776, 7942, 7995, 7829
1515, 7771, 7937, 7992, 7826, 7778, 7944, 7996, 7830, 7940, 7993, 7994, 7827, 7947, 7997, 7998,
7831, 7783, 7949, 7999, 7833
1516, 7778, 7944, 7996, 7830, 7785, 7951, 8000, 7834, 7947, 7997, 7998, 7831, 7954, 8001, 8002,
7835, 7790, 7956, 8003, 7837
1517, 7785, 7951, 8000, 7834, 7792, 7958, 8004, 7838, 7954, 8001, 8002, 7835, 7961, 8005, 8006,
7839, 7797, 7963, 8007, 7841
1518, 7792, 7958, 8004, 7838, 7799, 7965, 8008, 7842, 7961, 8005, 8006, 7839, 7968, 8009, 8010,
7843, 7804, 7970, 8011, 7845
1519, 7799, 7965, 8008, 7842, 7806, 7972, 8012, 7846, 7968, 8009, 8010, 7843, 7975, 8013, 8014,
7847, 7811, 7977, 8015, 7849
1520, 7806, 7972, 8012, 7846, 7813, 7979, 8016, 7850, 7975, 8013, 8014, 7847, 7982, 8017, 8018,
7851, 7818, 7984, 8019, 7853
1521, 7819, 7985, 8020, 7854, 7820, 7986, 8021, 7855, 7988, 8022, 8023, 7856, 7990, 8024, 8025,
7858, 7825, 7991, 8026, 7860
1522, 7820, 7986, 8021, 7855, 7826, 7992, 8027, 7861, 7990, 8024, 8025, 7858, 7994, 8028, 8029,
7862, 7829, 7995, 8030, 7864
1523, 7826, 7992, 8027, 7861, 7830, 7996, 8031, 7865, 7994, 8028, 8029, 7862, 7998, 8032, 8033,
7866, 7833, 7999, 8034, 7868
1524, 7830, 7996, 8031, 7865, 7834, 8000, 8035, 7869, 7998, 8032, 8033, 7866, 8002, 8036, 8037,
7870, 7837, 8003, 8038, 7872
1525, 7834, 8000, 8035, 7869, 7838, 8004, 8039, 7873, 8002, 8036, 8037, 7870, 8006, 8040, 8041,
7874, 7841, 8007, 8042, 7876
1526, 7838, 8004, 8039, 7873, 7842, 8008, 8043, 7877, 8006, 8040, 8041, 7874, 8010, 8044, 8045,
7878, 7845, 8011, 8046, 7880
1527, 7842, 8008, 8043, 7877, 7846, 8012, 8047, 7881, 8010, 8044, 8045, 7878, 8014, 8048, 8049,
7882, 7849, 8015, 8050, 7884
1528, 7846, 8012, 8047, 7881, 7850, 8016, 8051, 7885, 8014, 8048, 8049, 7882, 8018, 8052, 8053,
7886, 7853, 8019, 8054, 7888
1529, 7854, 8020, 8055, 7889, 7855, 8021, 8056, 7890, 8023, 8057, 8058, 7891, 8025, 8059, 8060,
7893, 7860, 8026, 8061, 7895
1530, 7855, 8021, 8056, 7890, 7861, 8027, 8062, 7896, 8025, 8059, 8060, 7893, 8029, 8063, 8064,
7897, 7864, 8030, 8065, 7899
1531, 7861, 8027, 8062, 7896, 7865, 8031, 8066, 7900, 8029, 8063, 8064, 7897, 8033, 8067, 8068,
7901, 7868, 8034, 8069, 7903
1532, 7865, 8031, 8066, 7900, 7869, 8035, 8070, 7904, 8033, 8067, 8068, 7901, 8037, 8071, 8072,
7905, 7872, 8038, 8073, 7907
1533, 7869, 8035, 8070, 7904, 7873, 8039, 8074, 7908, 8037, 8071, 8072, 7905, 8041, 8075, 8076,
7909, 7876, 8042, 8077, 7911
1534, 7873, 8039, 8074, 7908, 7877, 8043, 8078, 7912, 8041, 8075, 8076, 7909, 8045, 8079, 8080,
7913, 7880, 8046, 8081, 7915
1535, 7877, 8043, 8078, 7912, 7881, 8047, 8082, 7916, 8045, 8079, 8080, 7913, 8049, 8083, 8084,
7917, 7884, 8050, 8085, 7919
1536, 7881, 8047, 8082, 7916, 7885, 8051, 8086, 7920, 8049, 8083, 8084, 7917, 8053, 8087, 8088,
7921, 7888, 8054, 8089, 7923
1537, 7924, 8090, 8091, 7925, 7926, 8092, 8093, 7927, 8094, 8095, 8096, 7929, 8097, 8098, 8099,
7932, 7934, 8100, 8101, 7935
1538, 7926, 8092, 8093, 7927, 7936, 8102, 8103, 7937, 8097, 8098, 8099, 7932, 8104, 8105, 8106,
7939, 7941, 8107, 8108, 7942
1539, 7936, 8102, 8103, 7937, 7943, 8109, 8110, 7944, 8104, 8105, 8106, 7939, 8111, 8112, 8113,
7946, 7948, 8114, 8115, 7949
1540, 7943, 8109, 8110, 7944, 7950, 8116, 8117, 7951, 8111, 8112, 8113, 7946, 8118, 8119, 8120,
7953, 7955, 8121, 8122, 7956
1541, 7950, 8116, 8117, 7951, 7957, 8123, 8124, 7958, 8118, 8119, 8120, 7953, 8125, 8126, 8127,
7960, 7962, 8128, 8129, 7963
1542, 7957, 8123, 8124, 7958, 7964, 8130, 8131, 7965, 8125, 8126, 8127, 7960, 8132, 8133, 8134,
7967, 7969, 8135, 8136, 7970
1543, 7964, 8130, 8131, 7965, 7971, 8137, 8138, 7972, 8132, 8133, 8134, 7967, 8139, 8140, 8141,
7974, 7976, 8142, 8143, 7977
1544, 7971, 8137, 8138, 7972, 7978, 8144, 8145, 7979, 8139, 8140, 8141, 7974, 8146, 8147, 8148,
7981, 7983, 8149, 8150, 7984
1545, 7925, 8091, 8151, 7985, 7927, 8093, 8152, 7986, 8096, 8153, 8154, 7987, 8099, 8155, 8156,
7989, 7935, 8101, 8157, 7991
1546, 7927, 8093, 8152, 7986, 7937, 8103, 8158, 7992, 8099, 8155, 8156, 7989, 8106, 8159, 8160,
7993, 7942, 8108, 8161, 7995
1547, 7937, 8103, 8158, 7992, 7944, 8110, 8162, 7996, 8106, 8159, 8160, 7993, 8113, 8163, 8164,
7997, 7949, 8115, 8165, 7999
1548, 7944, 8110, 8162, 7996, 7951, 8117, 8166, 8000, 8113, 8163, 8164, 7997, 8120, 8167, 8168,
8001, 7956, 8122, 8169, 8003
1549, 7951, 8117, 8166, 8000, 7958, 8124, 8170, 8004, 8120, 8167, 8168, 8001, 8127, 8171, 8172,
8005, 7963, 8129, 8173, 8007
1550, 7958, 8124, 8170, 8004, 7965, 8131, 8174, 8008, 8127, 8171, 8172, 8005, 8134, 8175, 8176,
8009, 7970, 8136, 8177, 8011
1551, 7965, 8131, 8174, 8008, 7972, 8138, 8178, 8012, 8134, 8175, 8176, 8009, 8141, 8179, 8180,
8013, 7977, 8143, 8181, 8015
1552, 7972, 8138, 8178, 8012, 7979, 8145, 8182, 8016, 8141, 8179, 8180, 8013, 8148, 8183, 8184,
8017, 7984, 8150, 8185, 8019
1553, 7985, 8151, 8186, 8020, 7986, 8152, 8187, 8021, 8154, 8188, 8189, 8022, 8156, 8190, 8191,
8024, 7991, 8157, 8192, 8026
1554, 7986, 8152, 8187, 8021, 7992, 8158, 8193, 8027, 8156, 8190, 8191, 8024, 8160, 8194, 8195,
8028, 7995, 8161, 8196, 8030
1555, 7992, 8158, 8193, 8027, 7996, 8162, 8197, 8031, 8160, 8194, 8195, 8028, 8164, 8198, 8199,
8032, 7999, 8165, 8200, 8034
1556, 7996, 8162, 8197, 8031, 8000, 8166, 8201, 8035, 8164, 8198, 8199, 8032, 8168, 8202, 8203,
8036, 8003, 8169, 8204, 8038
1557, 8000, 8166, 8201, 8035, 8004, 8170, 8205, 8039, 8168, 8202, 8203, 8036, 8172, 8206, 8207,
8040, 8007, 8173, 8208, 8042
1558, 8004, 8170, 8205, 8039, 8008, 8174, 8209, 8043, 8172, 8206, 8207, 8040, 8176, 8210, 8211,
8044, 8011, 8177, 8212, 8046
1559, 8008, 8174, 8209, 8043, 8012, 8178, 8213, 8047, 8176, 8210, 8211, 8044, 8180, 8214, 8215,
8048, 8015, 8181, 8216, 8050
1560, 8012, 8178, 8213, 8047, 8016, 8182, 8217, 8051, 8180, 8214, 8215, 8048, 8184, 8218, 8219,
8052, 8019, 8185, 8220, 8054
1561, 8020, 8186, 8221, 8055, 8021, 8187, 8222, 8056, 8189, 8223, 8224, 8057, 8191, 8225, 8226,
8059, 8026, 8192, 8227, 8061
1562, 8021, 8187, 8222, 8056, 8027, 8193, 8228, 8062, 8191, 8225, 8226, 8059, 8195, 8229, 8230,
8063, 8030, 8196, 8231, 8065
1563, 8027, 8193, 8228, 8062, 8031, 8197, 8232, 8066, 8195, 8229, 8230, 8063, 8199, 8233, 8234,
8067, 8034, 8200, 8235, 8069
1564, 8031, 8197, 8232, 8066, 8035, 8201, 8236, 8070, 8199, 8233, 8234, 8067, 8203, 8237, 8238,
8071, 8038, 8204, 8239, 8073
1565, 8035, 8201, 8236, 8070, 8039, 8205, 8240, 8074, 8203, 8237, 8238, 8071, 8207, 8241, 8242,
8075, 8042, 8208, 8243, 8077
1566, 8039, 8205, 8240, 8074, 8043, 8209, 8244, 8078, 8207, 8241, 8242, 8075, 8211, 8245, 8246,
8079, 8046, 8212, 8247, 8081
1567, 8043, 8209, 8244, 8078, 8047, 8213, 8248, 8082, 8211, 8245, 8246, 8079, 8215, 8249, 8250,
8083, 8050, 8216, 8251, 8085
1568, 8047, 8213, 8248, 8082, 8051, 8217, 8252, 8086, 8215, 8249, 8250, 8083, 8219, 8253, 8254,
8087, 8054, 8220, 8255, 8089
1569, 8090, 8256, 8257, 8091, 8092, 8258, 8259, 8093, 8260, 8261, 8262, 8095, 8263, 8264, 8265,
8098, 8100, 8266, 8267, 8101
1570, 8092, 8258, 8259, 8093, 8102, 8268, 8269, 8103, 8263, 8264, 8265, 8098, 8270, 8271, 8272,
8105, 8107, 8273, 8274, 8108
1571, 8102, 8268, 8269, 8103, 8109, 8275, 8276, 8110, 8270, 8271, 8272, 8105, 8277, 8278, 8279,
8112, 8114, 8280, 8281, 8115
1572, 8109, 8275, 8276, 8110, 8116, 8282, 8283, 8117, 8277, 8278, 8279, 8112, 8284, 8285, 8286,
8119, 8121, 8287, 8288, 8122
1573, 8116, 8282, 8283, 8117, 8123, 8289, 8290, 8124, 8284, 8285, 8286, 8119, 8291, 8292, 8293,
8126, 8128, 8294, 8295, 8129
1574, 8123, 8289, 8290, 8124, 8130, 8296, 8297, 8131, 8291, 8292, 8293, 8126, 8298, 8299, 8300,
8133, 8135, 8301, 8302, 8136
1575, 8130, 8296, 8297, 8131, 8137, 8303, 8304, 8138, 8298, 8299, 8300, 8133, 8305, 8306, 8307,
8140, 8142, 8308, 8309, 8143
1576, 8137, 8303, 8304, 8138, 8144, 8310, 8311, 8145, 8305, 8306, 8307, 8140, 8312, 8313, 8314,
8147, 8149, 8315, 8316, 8150
1577, 8091, 8257, 8317, 8151, 8093, 8259, 8318, 8152, 8262, 8319, 8320, 8153, 8265, 8321, 8322,
8155, 8101, 8267, 8323, 8157
1578, 8093, 8259, 8318, 8152, 8103, 8269, 8324, 8158, 8265, 8321, 8322, 8155, 8272, 8325, 8326,
8159, 8108, 8274, 8327, 8161
1579, 8103, 8269, 8324, 8158, 8110, 8276, 8328, 8162, 8272, 8325, 8326, 8159, 8279, 8329, 8330,
8163, 8115, 8281, 8331, 8165
1580, 8110, 8276, 8328, 8162, 8117, 8283, 8332, 8166, 8279, 8329, 8330, 8163, 8286, 8333, 8334,
8167, 8122, 8288, 8335, 8169
1581, 8117, 8283, 8332, 8166, 8124, 8290, 8336, 8170, 8286, 8333, 8334, 8167, 8293, 8337, 8338,
8171, 8129, 8295, 8339, 8173
1582, 8124, 8290, 8336, 8170, 8131, 8297, 8340, 8174, 8293, 8337, 8338, 8171, 8300, 8341, 8342,
8175, 8136, 8302, 8343, 8177
1583, 8131, 8297, 8340, 8174, 8138, 8304, 8344, 8178, 8300, 8341, 8342, 8175, 8307, 8345, 8346,
8179, 8143, 8309, 8347, 8181
1584, 8138, 8304, 8344, 8178, 8145, 8311, 8348, 8182, 8307, 8345, 8346, 8179, 8314, 8349, 8350,
8183, 8150, 8316, 8351, 8185
1585, 8151, 8317, 8352, 8186, 8152, 8318, 8353, 8187, 8320, 8354, 8355, 8188, 8322, 8356, 8357,
8190, 8157, 8323, 8358, 8192
1586, 8152, 8318, 8353, 8187, 8158, 8324, 8359, 8193, 8322, 8356, 8357, 8190, 8326, 8360, 8361,
8194, 8161, 8327, 8362, 8196
1587, 8158, 8324, 8359, 8193, 8162, 8328, 8363, 8197, 8326, 8360, 8361, 8194, 8330, 8364, 8365,
8198, 8165, 8331, 8366, 8200
1588, 8162, 8328, 8363, 8197, 8166, 8332, 8367, 8201, 8330, 8364, 8365, 8198, 8334, 8368, 8369,
8202, 8169, 8335, 8370, 8204
1589, 8166, 8332, 8367, 8201, 8170, 8336, 8371, 8205, 8334, 8368, 8369, 8202, 8338, 8372, 8373,
8206, 8173, 8339, 8374, 8208
1590, 8170, 8336, 8371, 8205, 8174, 8340, 8375, 8209, 8338, 8372, 8373, 8206, 8342, 8376, 8377,
8210, 8177, 8343, 8378, 8212
1591, 8174, 8340, 8375, 8209, 8178, 8344, 8379, 8213, 8342, 8376, 8377, 8210, 8346, 8380, 8381,
8214, 8181, 8347, 8382, 8216
1592, 8178, 8344, 8379, 8213, 8182, 8348, 8383, 8217, 8346, 8380, 8381, 8214, 8350, 8384, 8385,
8218, 8185, 8351, 8386, 8220
1593, 8186, 8352, 8387, 8221, 8187, 8353, 8388, 8222, 8355, 8389, 8390, 8223, 8357, 8391, 8392,
8225, 8192, 8358, 8393, 8227
1594, 8187, 8353, 8388, 8222, 8193, 8359, 8394, 8228, 8357, 8391, 8392, 8225, 8361, 8395, 8396,
8229, 8196, 8362, 8397, 8231
1595, 8193, 8359, 8394, 8228, 8197, 8363, 8398, 8232, 8361, 8395, 8396, 8229, 8365, 8399, 8400,
8233, 8200, 8366, 8401, 8235
1596, 8197, 8363, 8398, 8232, 8201, 8367, 8402, 8236, 8365, 8399, 8400, 8233, 8369, 8403, 8404,
8237, 8204, 8370, 8405, 8239
1597, 8201, 8367, 8402, 8236, 8205, 8371, 8406, 8240, 8369, 8403, 8404, 8237, 8373, 8407, 8408,
8241, 8208, 8374, 8409, 8243
1598, 8205, 8371, 8406, 8240, 8209, 8375, 8410, 8244, 8373, 8407, 8408, 8241, 8377, 8411, 8412,
8245, 8212, 8378, 8413, 8247
1599, 8209, 8375, 8410, 8244, 8213, 8379, 8414, 8248, 8377, 8411, 8412, 8245, 8381, 8415, 8416,
8249, 8216, 8382, 8417, 8251
1600, 8213, 8379, 8414, 8248, 8217, 8383, 8418, 8252, 8381, 8415, 8416, 8249, 8385, 8419, 8420,
8253, 8220, 8386, 8421, 8255
1601, 8256, 8422, 8423, 8257, 8258, 8424, 8425, 8259, 8426, 8427, 8428, 8261, 8429, 8430, 8431,
8264, 8266, 8432, 8433, 8267
1602, 8258, 8424, 8425, 8259, 8268, 8434, 8435, 8269, 8429, 8430, 8431, 8264, 8436, 8437, 8438,
8271, 8273, 8439, 8440, 8274
1603, 8268, 8434, 8435, 8269, 8275, 8441, 8442, 8276, 8436, 8437, 8438, 8271, 8443, 8444, 8445,
8278, 8280, 8446, 8447, 8281
1604, 8275, 8441, 8442, 8276, 8282, 8448, 8449, 8283, 8443, 8444, 8445, 8278, 8450, 8451, 8452,
8285, 8287, 8453, 8454, 8288
1605, 8282, 8448, 8449, 8283, 8289, 8455, 8456, 8290, 8450, 8451, 8452, 8285, 8457, 8458, 8459,
8292, 8294, 8460, 8461, 8295
1606, 8289, 8455, 8456, 8290, 8296, 8462, 8463, 8297, 8457, 8458, 8459, 8292, 8464, 8465, 8466,
8299, 8301, 8467, 8468, 8302
1607, 8296, 8462, 8463, 8297, 8303, 8469, 8470, 8304, 8464, 8465, 8466, 8299, 8471, 8472, 8473,
8306, 8308, 8474, 8475, 8309
1608, 8303, 8469, 8470, 8304, 8310, 8476, 8477, 8311, 8471, 8472, 8473, 8306, 8478, 8479, 8480,
8313, 8315, 8481, 8482, 8316
1609, 8257, 8423, 8483, 8317, 8259, 8425, 8484, 8318, 8428, 8485, 8486, 8319, 8431, 8487, 8488,
8321, 8267, 8433, 8489, 8323
1610, 8259, 8425, 8484, 8318, 8269, 8435, 8490, 8324, 8431, 8487, 8488, 8321, 8438, 8491, 8492,
8325, 8274, 8440, 8493, 8327
1611, 8269, 8435, 8490, 8324, 8276, 8442, 8494, 8328, 8438, 8491, 8492, 8325, 8445, 8495, 8496,
8329, 8281, 8447, 8497, 8331
1612, 8276, 8442, 8494, 8328, 8283, 8449, 8498, 8332, 8445, 8495, 8496, 8329, 8452, 8499, 8500,
8333, 8288, 8454, 8501, 8335
1613, 8283, 8449, 8498, 8332, 8290, 8456, 8502, 8336, 8452, 8499, 8500, 8333, 8459, 8503, 8504,
8337, 8295, 8461, 8505, 8339
1614, 8290, 8456, 8502, 8336, 8297, 8463, 8506, 8340, 8459, 8503, 8504, 8337, 8466, 8507, 8508,
8341, 8302, 8468, 8509, 8343
1615, 8297, 8463, 8506, 8340, 8304, 8470, 8510, 8344, 8466, 8507, 8508, 8341, 8473, 8511, 8512,
8345, 8309, 8475, 8513, 8347
1616, 8304, 8470, 8510, 8344, 8311, 8477, 8514, 8348, 8473, 8511, 8512, 8345, 8480, 8515, 8516,
8349, 8316, 8482, 8517, 8351
1617, 8317, 8483, 8518, 8352, 8318, 8484, 8519, 8353, 8486, 8520, 8521, 8354, 8488, 8522, 8523,
8356, 8323, 8489, 8524, 8358
1618, 8318, 8484, 8519, 8353, 8324, 8490, 8525, 8359, 8488, 8522, 8523, 8356, 8492, 8526, 8527,
8360, 8327, 8493, 8528, 8362
1619, 8324, 8490, 8525, 8359, 8328, 8494, 8529, 8363, 8492, 8526, 8527, 8360, 8496, 8530, 8531,
8364, 8331, 8497, 8532, 8366
1620, 8328, 8494, 8529, 8363, 8332, 8498, 8533, 8367, 8496, 8530, 8531, 8364, 8500, 8534, 8535,
8368, 8335, 8501, 8536, 8370
1621, 8332, 8498, 8533, 8367, 8336, 8502, 8537, 8371, 8500, 8534, 8535, 8368, 8504, 8538, 8539,
8372, 8339, 8505, 8540, 8374
1622, 8336, 8502, 8537, 8371, 8340, 8506, 8541, 8375, 8504, 8538, 8539, 8372, 8508, 8542, 8543,
8376, 8343, 8509, 8544, 8378
1623, 8340, 8506, 8541, 8375, 8344, 8510, 8545, 8379, 8508, 8542, 8543, 8376, 8512, 8546, 8547,
8380, 8347, 8513, 8548, 8382
1624, 8344, 8510, 8545, 8379, 8348, 8514, 8549, 8383, 8512, 8546, 8547, 8380, 8516, 8550, 8551,
8384, 8351, 8517, 8552, 8386
1625, 8352, 8518, 8553, 8387, 8353, 8519, 8554, 8388, 8521, 8555, 8556, 8389, 8523, 8557, 8558,
8391, 8358, 8524, 8559, 8393
1626, 8353, 8519, 8554, 8388, 8359, 8525, 8560, 8394, 8523, 8557, 8558, 8391, 8527, 8561, 8562,
8395, 8362, 8528, 8563, 8397
1627, 8359, 8525, 8560, 8394, 8363, 8529, 8564, 8398, 8527, 8561, 8562, 8395, 8531, 8565, 8566,
8399, 8366, 8532, 8567, 8401
1628, 8363, 8529, 8564, 8398, 8367, 8533, 8568, 8402, 8531, 8565, 8566, 8399, 8535, 8569, 8570,
8403, 8370, 8536, 8571, 8405
1629, 8367, 8533, 8568, 8402, 8371, 8537, 8572, 8406, 8535, 8569, 8570, 8403, 8539, 8573, 8574,
8407, 8374, 8540, 8575, 8409
1630, 8371, 8537, 8572, 8406, 8375, 8541, 8576, 8410, 8539, 8573, 8574, 8407, 8543, 8577, 8578,
8411, 8378, 8544, 8579, 8413
1631, 8375, 8541, 8576, 8410, 8379, 8545, 8580, 8414, 8543, 8577, 8578, 8411, 8547, 8581, 8582,
8415, 8382, 8548, 8583, 8417
1632, 8379, 8545, 8580, 8414, 8383, 8549, 8584, 8418, 8547, 8581, 8582, 8415, 8551, 8585, 8586,
8419, 8386, 8552, 8587, 8421
1633, 8422, 8588, 8589, 8423, 8424, 8590, 8591, 8425, 8592, 8593, 8594, 8427, 8595, 8596, 8597,
8430, 8432, 8598, 8599, 8433
1634, 8424, 8590, 8591, 8425, 8434, 8600, 8601, 8435, 8595, 8596, 8597, 8430, 8602, 8603, 8604,
8437, 8439, 8605, 8606, 8440
1635, 8434, 8600, 8601, 8435, 8441, 8607, 8608, 8442, 8602, 8603, 8604, 8437, 8609, 8610, 8611,
8444, 8446, 8612, 8613, 8447
1636, 8441, 8607, 8608, 8442, 8448, 8614, 8615, 8449, 8609, 8610, 8611, 8444, 8616, 8617, 8618,
8451, 8453, 8619, 8620, 8454
1637, 8448, 8614, 8615, 8449, 8455, 8621, 8622, 8456, 8616, 8617, 8618, 8451, 8623, 8624, 8625,
8458, 8460, 8626, 8627, 8461
1638, 8455, 8621, 8622, 8456, 8462, 8628, 8629, 8463, 8623, 8624, 8625, 8458, 8630, 8631, 8632,
8465, 8467, 8633, 8634, 8468
1639, 8462, 8628, 8629, 8463, 8469, 8635, 8636, 8470, 8630, 8631, 8632, 8465, 8637, 8638, 8639,
8472, 8474, 8640, 8641, 8475
1640, 8469, 8635, 8636, 8470, 8476, 8642, 8643, 8477, 8637, 8638, 8639, 8472, 8644, 8645, 8646,
8479, 8481, 8647, 8648, 8482
1641, 8423, 8589, 8649, 8483, 8425, 8591, 8650, 8484, 8594, 8651, 8652, 8485, 8597, 8653, 8654,
8487, 8433, 8599, 8655, 8489
1642, 8425, 8591, 8650, 8484, 8435, 8601, 8656, 8490, 8597, 8653, 8654, 8487, 8604, 8657, 8658,
8491, 8440, 8606, 8659, 8493
1643, 8435, 8601, 8656, 8490, 8442, 8608, 8660, 8494, 8604, 8657, 8658, 8491, 8611, 8661, 8662,
8495, 8447, 8613, 8663, 8497
1644, 8442, 8608, 8660, 8494, 8449, 8615, 8664, 8498, 8611, 8661, 8662, 8495, 8618, 8665, 8666,
8499, 8454, 8620, 8667, 8501
1645, 8449, 8615, 8664, 8498, 8456, 8622, 8668, 8502, 8618, 8665, 8666, 8499, 8625, 8669, 8670,
8503, 8461, 8627, 8671, 8505
1646, 8456, 8622, 8668, 8502, 8463, 8629, 8672, 8506, 8625, 8669, 8670, 8503, 8632, 8673, 8674,
8507, 8468, 8634, 8675, 8509
1647, 8463, 8629, 8672, 8506, 8470, 8636, 8676, 8510, 8632, 8673, 8674, 8507, 8639, 8677, 8678,
8511, 8475, 8641, 8679, 8513
1648, 8470, 8636, 8676, 8510, 8477, 8643, 8680, 8514, 8639, 8677, 8678, 8511, 8646, 8681, 8682,
8515, 8482, 8648, 8683, 8517
1649, 8483, 8649, 8684, 8518, 8484, 8650, 8685, 8519, 8652, 8686, 8687, 8520, 8654, 8688, 8689,
8522, 8489, 8655, 8690, 8524
1650, 8484, 8650, 8685, 8519, 8490, 8656, 8691, 8525, 8654, 8688, 8689, 8522, 8658, 8692, 8693,
8526, 8493, 8659, 8694, 8528
1651, 8490, 8656, 8691, 8525, 8494, 8660, 8695, 8529, 8658, 8692, 8693, 8526, 8662, 8696, 8697,
8530, 8497, 8663, 8698, 8532
1652, 8494, 8660, 8695, 8529, 8498, 8664, 8699, 8533, 8662, 8696, 8697, 8530, 8666, 8700, 8701,
8534, 8501, 8667, 8702, 8536
1653, 8498, 8664, 8699, 8533, 8502, 8668, 8703, 8537, 8666, 8700, 8701, 8534, 8670, 8704, 8705,
8538, 8505, 8671, 8706, 8540
1654, 8502, 8668, 8703, 8537, 8506, 8672, 8707, 8541, 8670, 8704, 8705, 8538, 8674, 8708, 8709,
8542, 8509, 8675, 8710, 8544
1655, 8506, 8672, 8707, 8541, 8510, 8676, 8711, 8545, 8674, 8708, 8709, 8542, 8678, 8712, 8713,
8546, 8513, 8679, 8714, 8548
1656, 8510, 8676, 8711, 8545, 8514, 8680, 8715, 8549, 8678, 8712, 8713, 8546, 8682, 8716, 8717,
8550, 8517, 8683, 8718, 8552
1657, 8518, 8684, 8719, 8553, 8519, 8685, 8720, 8554, 8687, 8721, 8722, 8555, 8689, 8723, 8724,
8557, 8524, 8690, 8725, 8559
1658, 8519, 8685, 8720, 8554, 8525, 8691, 8726, 8560, 8689, 8723, 8724, 8557, 8693, 8727, 8728,
8561, 8528, 8694, 8729, 8563
1659, 8525, 8691, 8726, 8560, 8529, 8695, 8730, 8564, 8693, 8727, 8728, 8561, 8697, 8731, 8732,
8565, 8532, 8698, 8733, 8567
1660, 8529, 8695, 8730, 8564, 8533, 8699, 8734, 8568, 8697, 8731, 8732, 8565, 8701, 8735, 8736,
8569, 8536, 8702, 8737, 8571
1661, 8533, 8699, 8734, 8568, 8537, 8703, 8738, 8572, 8701, 8735, 8736, 8569, 8705, 8739, 8740,
8573, 8540, 8706, 8741, 8575
1662, 8537, 8703, 8738, 8572, 8541, 8707, 8742, 8576, 8705, 8739, 8740, 8573, 8709, 8743, 8744,
8577, 8544, 8710, 8745, 8579
1663, 8541, 8707, 8742, 8576, 8545, 8711, 8746, 8580, 8709, 8743, 8744, 8577, 8713, 8747, 8748,
8581, 8548, 8714, 8749, 8583
1664, 8545, 8711, 8746, 8580, 8549, 8715, 8750, 8584, 8713, 8747, 8748, 8581, 8717, 8751, 8752,
8585, 8552, 8718, 8753, 8587
1665, 8588, 8754, 8755, 8589, 8590, 8756, 8757, 8591, 8758, 8759, 8760, 8593, 8761, 8762, 8763,
8596, 8598, 8764, 8765, 8599
1666, 8590, 8756, 8757, 8591, 8600, 8766, 8767, 8601, 8761, 8762, 8763, 8596, 8768, 8769, 8770,
8603, 8605, 8771, 8772, 8606
1667, 8600, 8766, 8767, 8601, 8607, 8773, 8774, 8608, 8768, 8769, 8770, 8603, 8775, 8776, 8777,
8610, 8612, 8778, 8779, 8613
1668, 8607, 8773, 8774, 8608, 8614, 8780, 8781, 8615, 8775, 8776, 8777, 8610, 8782, 8783, 8784,
8617, 8619, 8785, 8786, 8620
1669, 8614, 8780, 8781, 8615, 8621, 8787, 8788, 8622, 8782, 8783, 8784, 8617, 8789, 8790, 8791,
8624, 8626, 8792, 8793, 8627
1670, 8621, 8787, 8788, 8622, 8628, 8794, 8795, 8629, 8789, 8790, 8791, 8624, 8796, 8797, 8798,
8631, 8633, 8799, 8800, 8634
1671, 8628, 8794, 8795, 8629, 8635, 8801, 8802, 8636, 8796, 8797, 8798, 8631, 8803, 8804, 8805,
8638, 8640, 8806, 8807, 8641
1672, 8635, 8801, 8802, 8636, 8642, 8808, 8809, 8643, 8803, 8804, 8805, 8638, 8810, 8811, 8812,
8645, 8647, 8813, 8814, 8648
1673, 8589, 8755, 8815, 8649, 8591, 8757, 8816, 8650, 8760, 8817, 8818, 8651, 8763, 8819, 8820,
8653, 8599, 8765, 8821, 8655
1674, 8591, 8757, 8816, 8650, 8601, 8767, 8822, 8656, 8763, 8819, 8820, 8653, 8770, 8823, 8824,
8657, 8606, 8772, 8825, 8659
1675, 8601, 8767, 8822, 8656, 8608, 8774, 8826, 8660, 8770, 8823, 8824, 8657, 8777, 8827, 8828,
8661, 8613, 8779, 8829, 8663
1676, 8608, 8774, 8826, 8660, 8615, 8781, 8830, 8664, 8777, 8827, 8828, 8661, 8784, 8831, 8832,
8665, 8620, 8786, 8833, 8667
1677, 8615, 8781, 8830, 8664, 8622, 8788, 8834, 8668, 8784, 8831, 8832, 8665, 8791, 8835, 8836,
8669, 8627, 8793, 8837, 8671
1678, 8622, 8788, 8834, 8668, 8629, 8795, 8838, 8672, 8791, 8835, 8836, 8669, 8798, 8839, 8840,
8673, 8634, 8800, 8841, 8675
1679, 8629, 8795, 8838, 8672, 8636, 8802, 8842, 8676, 8798, 8839, 8840, 8673, 8805, 8843, 8844,
8677, 8641, 8807, 8845, 8679
1680, 8636, 8802, 8842, 8676, 8643, 8809, 8846, 8680, 8805, 8843, 8844, 8677, 8812, 8847, 8848,
8681, 8648, 8814, 8849, 8683
1681, 8649, 8815, 8850, 8684, 8650, 8816, 8851, 8685, 8818, 8852, 8853, 8686, 8820, 8854, 8855,
8688, 8655, 8821, 8856, 8690
1682, 8650, 8816, 8851, 8685, 8656, 8822, 8857, 8691, 8820, 8854, 8855, 8688, 8824, 8858, 8859,
8692, 8659, 8825, 8860, 8694
1683, 8656, 8822, 8857, 8691, 8660, 8826, 8861, 8695, 8824, 8858, 8859, 8692, 8828, 8862, 8863,
8696, 8663, 8829, 8864, 8698
1684, 8660, 8826, 8861, 8695, 8664, 8830, 8865, 8699, 8828, 8862, 8863, 8696, 8832, 8866, 8867,
8700, 8667, 8833, 8868, 8702
1685, 8664, 8830, 8865, 8699, 8668, 8834, 8869, 8703, 8832, 8866, 8867, 8700, 8836, 8870, 8871,
8704, 8671, 8837, 8872, 8706
1686, 8668, 8834, 8869, 8703, 8672, 8838, 8873, 8707, 8836, 8870, 8871, 8704, 8840, 8874, 8875,
8708, 8675, 8841, 8876, 8710
1687, 8672, 8838, 8873, 8707, 8676, 8842, 8877, 8711, 8840, 8874, 8875, 8708, 8844, 8878, 8879,
8712, 8679, 8845, 8880, 8714
1688, 8676, 8842, 8877, 8711, 8680, 8846, 8881, 8715, 8844, 8878, 8879, 8712, 8848, 8882, 8883,
8716, 8683, 8849, 8884, 8718
1689, 8684, 8850, 8885, 8719, 8685, 8851, 8886, 8720, 8853, 8887, 8888, 8721, 8855, 8889, 8890,
8723, 8690, 8856, 8891, 8725
1690, 8685, 8851, 8886, 8720, 8691, 8857, 8892, 8726, 8855, 8889, 8890, 8723, 8859, 8893, 8894,
8727, 8694, 8860, 8895, 8729
1691, 8691, 8857, 8892, 8726, 8695, 8861, 8896, 8730, 8859, 8893, 8894, 8727, 8863, 8897, 8898,
8731, 8698, 8864, 8899, 8733
1692, 8695, 8861, 8896, 8730, 8699, 8865, 8900, 8734, 8863, 8897, 8898, 8731, 8867, 8901, 8902,
8735, 8702, 8868, 8903, 8737
1693, 8699, 8865, 8900, 8734, 8703, 8869, 8904, 8738, 8867, 8901, 8902, 8735, 8871, 8905, 8906,
8739, 8706, 8872, 8907, 8741
1694, 8703, 8869, 8904, 8738, 8707, 8873, 8908, 8742, 8871, 8905, 8906, 8739, 8875, 8909, 8910,
8743, 8710, 8876, 8911, 8745
1695, 8707, 8873, 8908, 8742, 8711, 8877, 8912, 8746, 8875, 8909, 8910, 8743, 8879, 8913, 8914,
8747, 8714, 8880, 8915, 8749
1696, 8711, 8877, 8912, 8746, 8715, 8881, 8916, 8750, 8879, 8913, 8914, 8747, 8883, 8917, 8918,
8751, 8718, 8884, 8919, 8753
1697, 8754, 8920, 8921, 8755, 8756, 8922, 8923, 8757, 8924, 8925, 8926, 8759, 8927, 8928, 8929,
8762, 8764, 8930, 8931, 8765
1698, 8756, 8922, 8923, 8757, 8766, 8932, 8933, 8767, 8927, 8928, 8929, 8762, 8934, 8935, 8936,
8769, 8771, 8937, 8938, 8772
1699, 8766, 8932, 8933, 8767, 8773, 8939, 8940, 8774, 8934, 8935, 8936, 8769, 8941, 8942, 8943,
8776, 8778, 8944, 8945, 8779
1700, 8773, 8939, 8940, 8774, 8780, 8946, 8947, 8781, 8941, 8942, 8943, 8776, 8948, 8949, 8950,
8783, 8785, 8951, 8952, 8786
1701, 8780, 8946, 8947, 8781, 8787, 8953, 8954, 8788, 8948, 8949, 8950, 8783, 8955, 8956, 8957,
8790, 8792, 8958, 8959, 8793
1702, 8787, 8953, 8954, 8788, 8794, 8960, 8961, 8795, 8955, 8956, 8957, 8790, 8962, 8963, 8964,
8797, 8799, 8965, 8966, 8800
1703, 8794, 8960, 8961, 8795, 8801, 8967, 8968, 8802, 8962, 8963, 8964, 8797, 8969, 8970, 8971,
8804, 8806, 8972, 8973, 8807
1704, 8801, 8967, 8968, 8802, 8808, 8974, 8975, 8809, 8969, 8970, 8971, 8804, 8976, 8977, 8978,
8811, 8813, 8979, 8980, 8814
1705, 8755, 8921, 8981, 8815, 8757, 8923, 8982, 8816, 8926, 8983, 8984, 8817, 8929, 8985, 8986,
8819, 8765, 8931, 8987, 8821
1706, 8757, 8923, 8982, 8816, 8767, 8933, 8988, 8822, 8929, 8985, 8986, 8819, 8936, 8989, 8990,
8823, 8772, 8938, 8991, 8825
1707, 8767, 8933, 8988, 8822, 8774, 8940, 8992, 8826, 8936, 8989, 8990, 8823, 8943, 8993, 8994,
8827, 8779, 8945, 8995, 8829
1708, 8774, 8940, 8992, 8826, 8781, 8947, 8996, 8830, 8943, 8993, 8994, 8827, 8950, 8997, 8998,
8831, 8786, 8952, 8999, 8833
1709, 8781, 8947, 8996, 8830, 8788, 8954, 9000, 8834, 8950, 8997, 8998, 8831, 8957, 9001, 9002,
8835, 8793, 8959, 9003, 8837
1710, 8788, 8954, 9000, 8834, 8795, 8961, 9004, 8838, 8957, 9001, 9002, 8835, 8964, 9005, 9006,
8839, 8800, 8966, 9007, 8841
1711, 8795, 8961, 9004, 8838, 8802, 8968, 9008, 8842, 8964, 9005, 9006, 8839, 8971, 9009, 9010,
8843, 8807, 8973, 9011, 8845
1712, 8802, 8968, 9008, 8842, 8809, 8975, 9012, 8846, 8971, 9009, 9010, 8843, 8978, 9013, 9014,
8847, 8814, 8980, 9015, 8849
1713, 8815, 8981, 9016, 8850, 8816, 8982, 9017, 8851, 8984, 9018, 9019, 8852, 8986, 9020, 9021,
8854, 8821, 8987, 9022, 8856
1714, 8816, 8982, 9017, 8851, 8822, 8988, 9023, 8857, 8986, 9020, 9021, 8854, 8990, 9024, 9025,
8858, 8825, 8991, 9026, 8860
1715, 8822, 8988, 9023, 8857, 8826, 8992, 9027, 8861, 8990, 9024, 9025, 8858, 8994, 9028, 9029,
8862, 8829, 8995, 9030, 8864
1716, 8826, 8992, 9027, 8861, 8830, 8996, 9031, 8865, 8994, 9028, 9029, 8862, 8998, 9032, 9033,
8866, 8833, 8999, 9034, 8868
1717, 8830, 8996, 9031, 8865, 8834, 9000, 9035, 8869, 8998, 9032, 9033, 8866, 9002, 9036, 9037,
8870, 8837, 9003, 9038, 8872
1718, 8834, 9000, 9035, 8869, 8838, 9004, 9039, 8873, 9002, 9036, 9037, 8870, 9006, 9040, 9041,
8874, 8841, 9007, 9042, 8876
1719, 8838, 9004, 9039, 8873, 8842, 9008, 9043, 8877, 9006, 9040, 9041, 8874, 9010, 9044, 9045,
8878, 8845, 9011, 9046, 8880
1720, 8842, 9008, 9043, 8877, 8846, 9012, 9047, 8881, 9010, 9044, 9045, 8878, 9014, 9048, 9049,
8882, 8849, 9015, 9050, 8884
1721, 8850, 9016, 9051, 8885, 8851, 9017, 9052, 8886, 9019, 9053, 9054, 8887, 9021, 9055, 9056,
8889, 8856, 9022, 9057, 8891
1722, 8851, 9017, 9052, 8886, 8857, 9023, 9058, 8892, 9021, 9055, 9056, 8889, 9025, 9059, 9060,
8893, 8860, 9026, 9061, 8895
1723, 8857, 9023, 9058, 8892, 8861, 9027, 9062, 8896, 9025, 9059, 9060, 8893, 9029, 9063, 9064,
8897, 8864, 9030, 9065, 8899
1724, 8861, 9027, 9062, 8896, 8865, 9031, 9066, 8900, 9029, 9063, 9064, 8897, 9033, 9067, 9068,
8901, 8868, 9034, 9069, 8903
1725, 8865, 9031, 9066, 8900, 8869, 9035, 9070, 8904, 9033, 9067, 9068, 8901, 9037, 9071, 9072,
8905, 8872, 9038, 9073, 8907
1726, 8869, 9035, 9070, 8904, 8873, 9039, 9074, 8908, 9037, 9071, 9072, 8905, 9041, 9075, 9076,
8909, 8876, 9042, 9077, 8911
1727, 8873, 9039, 9074, 8908, 8877, 9043, 9078, 8912, 9041, 9075, 9076, 8909, 9045, 9079, 9080,
8913, 8880, 9046, 9081, 8915
1728, 8877, 9043, 9078, 8912, 8881, 9047, 9082, 8916, 9045, 9079, 9080, 8913, 9049, 9083, 9084,
8917, 8884, 9050, 9085, 8919
1729, 8920, 9086, 9087, 8921, 8922, 9088, 9089, 8923, 9090, 9091, 9092, 8925, 9093, 9094, 9095,
8928, 8930, 9096, 9097, 8931
1730, 8922, 9088, 9089, 8923, 8932, 9098, 9099, 8933, 9093, 9094, 9095, 8928, 9100, 9101, 9102,
8935, 8937, 9103, 9104, 8938
1731, 8932, 9098, 9099, 8933, 8939, 9105, 9106, 8940, 9100, 9101, 9102, 8935, 9107, 9108, 9109,
8942, 8944, 9110, 9111, 8945
1732, 8939, 9105, 9106, 8940, 8946, 9112, 9113, 8947, 9107, 9108, 9109, 8942, 9114, 9115, 9116,
8949, 8951, 9117, 9118, 8952
1733, 8946, 9112, 9113, 8947, 8953, 9119, 9120, 8954, 9114, 9115, 9116, 8949, 9121, 9122, 9123,
8956, 8958, 9124, 9125, 8959
1734, 8953, 9119, 9120, 8954, 8960, 9126, 9127, 8961, 9121, 9122, 9123, 8956, 9128, 9129, 9130,
8963, 8965, 9131, 9132, 8966
1735, 8960, 9126, 9127, 8961, 8967, 9133, 9134, 8968, 9128, 9129, 9130, 8963, 9135, 9136, 9137,
8970, 8972, 9138, 9139, 8973
1736, 8967, 9133, 9134, 8968, 8974, 9140, 9141, 8975, 9135, 9136, 9137, 8970, 9142, 9143, 9144,
8977, 8979, 9145, 9146, 8980
1737, 8921, 9087, 9147, 8981, 8923, 9089, 9148, 8982, 9092, 9149, 9150, 8983, 9095, 9151, 9152,
8985, 8931, 9097, 9153, 8987
1738, 8923, 9089, 9148, 8982, 8933, 9099, 9154, 8988, 9095, 9151, 9152, 8985, 9102, 9155, 9156,
8989, 8938, 9104, 9157, 8991
1739, 8933, 9099, 9154, 8988, 8940, 9106, 9158, 8992, 9102, 9155, 9156, 8989, 9109, 9159, 9160,
8993, 8945, 9111, 9161, 8995
1740, 8940, 9106, 9158, 8992, 8947, 9113, 9162, 8996, 9109, 9159, 9160, 8993, 9116, 9163, 9164,
8997, 8952, 9118, 9165, 8999
1741, 8947, 9113, 9162, 8996, 8954, 9120, 9166, 9000, 9116, 9163, 9164, 8997, 9123, 9167, 9168,
9001, 8959, 9125, 9169, 9003
1742, 8954, 9120, 9166, 9000, 8961, 9127, 9170, 9004, 9123, 9167, 9168, 9001, 9130, 9171, 9172,
9005, 8966, 9132, 9173, 9007
1743, 8961, 9127, 9170, 9004, 8968, 9134, 9174, 9008, 9130, 9171, 9172, 9005, 9137, 9175, 9176,
9009, 8973, 9139, 9177, 9011
1744, 8968, 9134, 9174, 9008, 8975, 9141, 9178, 9012, 9137, 9175, 9176, 9009, 9144, 9179, 9180,
9013, 8980, 9146, 9181, 9015
1745, 8981, 9147, 9182, 9016, 8982, 9148, 9183, 9017, 9150, 9184, 9185, 9018, 9152, 9186, 9187,
9020, 8987, 9153, 9188, 9022
1746, 8982, 9148, 9183, 9017, 8988, 9154, 9189, 9023, 9152, 9186, 9187, 9020, 9156, 9190, 9191,
9024, 8991, 9157, 9192, 9026
1747, 8988, 9154, 9189, 9023, 8992, 9158, 9193, 9027, 9156, 9190, 9191, 9024, 9160, 9194, 9195,
9028, 8995, 9161, 9196, 9030
1748, 8992, 9158, 9193, 9027, 8996, 9162, 9197, 9031, 9160, 9194, 9195, 9028, 9164, 9198, 9199,
9032, 8999, 9165, 9200, 9034
1749, 8996, 9162, 9197, 9031, 9000, 9166, 9201, 9035, 9164, 9198, 9199, 9032, 9168, 9202, 9203,
9036, 9003, 9169, 9204, 9038
1750, 9000, 9166, 9201, 9035, 9004, 9170, 9205, 9039, 9168, 9202, 9203, 9036, 9172, 9206, 9207,
9040, 9007, 9173, 9208, 9042
1751, 9004, 9170, 9205, 9039, 9008, 9174, 9209, 9043, 9172, 9206, 9207, 9040, 9176, 9210, 9211,
9044, 9011, 9177, 9212, 9046
1752, 9008, 9174, 9209, 9043, 9012, 9178, 9213, 9047, 9176, 9210, 9211, 9044, 9180, 9214, 9215,
9048, 9015, 9181, 9216, 9050
1753, 9016, 9182, 9217, 9051, 9017, 9183, 9218, 9052, 9185, 9219, 9220, 9053, 9187, 9221, 9222,
9055, 9022, 9188, 9223, 9057
1754, 9017, 9183, 9218, 9052, 9023, 9189, 9224, 9058, 9187, 9221, 9222, 9055, 9191, 9225, 9226,
9059, 9026, 9192, 9227, 9061
1755, 9023, 9189, 9224, 9058, 9027, 9193, 9228, 9062, 9191, 9225, 9226, 9059, 9195, 9229, 9230,
9063, 9030, 9196, 9231, 9065
1756, 9027, 9193, 9228, 9062, 9031, 9197, 9232, 9066, 9195, 9229, 9230, 9063, 9199, 9233, 9234,
9067, 9034, 9200, 9235, 9069
1757, 9031, 9197, 9232, 9066, 9035, 9201, 9236, 9070, 9199, 9233, 9234, 9067, 9203, 9237, 9238,
9071, 9038, 9204, 9239, 9073
1758, 9035, 9201, 9236, 9070, 9039, 9205, 9240, 9074, 9203, 9237, 9238, 9071, 9207, 9241, 9242,
9075, 9042, 9208, 9243, 9077
1759, 9039, 9205, 9240, 9074, 9043, 9209, 9244, 9078, 9207, 9241, 9242, 9075, 9211, 9245, 9246,
9079, 9046, 9212, 9247, 9081
1760, 9043, 9209, 9244, 9078, 9047, 9213, 9248, 9082, 9211, 9245, 9246, 9079, 9215, 9249, 9250,
9083, 9050, 9216, 9251, 9085
1761, 9086, 9252, 9253, 9087, 9088, 9254, 9255, 9089, 9256, 9257, 9258, 9091, 9259, 9260, 9261,
9094, 9096, 9262, 9263, 9097
1762, 9088, 9254, 9255, 9089, 9098, 9264, 9265, 9099, 9259, 9260, 9261, 9094, 9266, 9267, 9268,
9101, 9103, 9269, 9270, 9104
1763, 9098, 9264, 9265, 9099, 9105, 9271, 9272, 9106, 9266, 9267, 9268, 9101, 9273, 9274, 9275,
9108, 9110, 9276, 9277, 9111
1764, 9105, 9271, 9272, 9106, 9112, 9278, 9279, 9113, 9273, 9274, 9275, 9108, 9280, 9281, 9282,
9115, 9117, 9283, 9284, 9118
1765, 9112, 9278, 9279, 9113, 9119, 9285, 9286, 9120, 9280, 9281, 9282, 9115, 9287, 9288, 9289,
9122, 9124, 9290, 9291, 9125
1766, 9119, 9285, 9286, 9120, 9126, 9292, 9293, 9127, 9287, 9288, 9289, 9122, 9294, 9295, 9296,
9129, 9131, 9297, 9298, 9132
1767, 9126, 9292, 9293, 9127, 9133, 9299, 9300, 9134, 9294, 9295, 9296, 9129, 9301, 9302, 9303,
9136, 9138, 9304, 9305, 9139
1768, 9133, 9299, 9300, 9134, 9140, 9306, 9307, 9141, 9301, 9302, 9303, 9136, 9308, 9309, 9310,
9143, 9145, 9311, 9312, 9146
1769, 9087, 9253, 9313, 9147, 9089, 9255, 9314, 9148, 9258, 9315, 9316, 9149, 9261, 9317, 9318,
9151, 9097, 9263, 9319, 9153
1770, 9089, 9255, 9314, 9148, 9099, 9265, 9320, 9154, 9261, 9317, 9318, 9151, 9268, 9321, 9322,
9155, 9104, 9270, 9323, 9157
1771, 9099, 9265, 9320, 9154, 9106, 9272, 9324, 9158, 9268, 9321, 9322, 9155, 9275, 9325, 9326,
9159, 9111, 9277, 9327, 9161
1772, 9106, 9272, 9324, 9158, 9113, 9279, 9328, 9162, 9275, 9325, 9326, 9159, 9282, 9329, 9330,
9163, 9118, 9284, 9331, 9165
1773, 9113, 9279, 9328, 9162, 9120, 9286, 9332, 9166, 9282, 9329, 9330, 9163, 9289, 9333, 9334,
9167, 9125, 9291, 9335, 9169
1774, 9120, 9286, 9332, 9166, 9127, 9293, 9336, 9170, 9289, 9333, 9334, 9167, 9296, 9337, 9338,
9171, 9132, 9298, 9339, 9173
1775, 9127, 9293, 9336, 9170, 9134, 9300, 9340, 9174, 9296, 9337, 9338, 9171, 9303, 9341, 9342,
9175, 9139, 9305, 9343, 9177
1776, 9134, 9300, 9340, 9174, 9141, 9307, 9344, 9178, 9303, 9341, 9342, 9175, 9310, 9345, 9346,
9179, 9146, 9312, 9347, 9181
1777, 9147, 9313, 9348, 9182, 9148, 9314, 9349, 9183, 9316, 9350, 9351, 9184, 9318, 9352, 9353,
9186, 9153, 9319, 9354, 9188
1778, 9148, 9314, 9349, 9183, 9154, 9320, 9355, 9189, 9318, 9352, 9353, 9186, 9322, 9356, 9357,
9190, 9157, 9323, 9358, 9192
1779, 9154, 9320, 9355, 9189, 9158, 9324, 9359, 9193, 9322, 9356, 9357, 9190, 9326, 9360, 9361,
9194, 9161, 9327, 9362, 9196
1780, 9158, 9324, 9359, 9193, 9162, 9328, 9363, 9197, 9326, 9360, 9361, 9194, 9330, 9364, 9365,
9198, 9165, 9331, 9366, 9200
1781, 9162, 9328, 9363, 9197, 9166, 9332, 9367, 9201, 9330, 9364, 9365, 9198, 9334, 9368, 9369,
9202, 9169, 9335, 9370, 9204
1782, 9166, 9332, 9367, 9201, 9170, 9336, 9371, 9205, 9334, 9368, 9369, 9202, 9338, 9372, 9373,
9206, 9173, 9339, 9374, 9208
1783, 9170, 9336, 9371, 9205, 9174, 9340, 9375, 9209, 9338, 9372, 9373, 9206, 9342, 9376, 9377,
9210, 9177, 9343, 9378, 9212
1784, 9174, 9340, 9375, 9209, 9178, 9344, 9379, 9213, 9342, 9376, 9377, 9210, 9346, 9380, 9381,
9214, 9181, 9347, 9382, 9216
1785, 9182, 9348, 9383, 9217, 9183, 9349, 9384, 9218, 9351, 9385, 9386, 9219, 9353, 9387, 9388,
9221, 9188, 9354, 9389, 9223
1786, 9183, 9349, 9384, 9218, 9189, 9355, 9390, 9224, 9353, 9387, 9388, 9221, 9357, 9391, 9392,
9225, 9192, 9358, 9393, 9227
1787, 9189, 9355, 9390, 9224, 9193, 9359, 9394, 9228, 9357, 9391, 9392, 9225, 9361, 9395, 9396,
9229, 9196, 9362, 9397, 9231
1788, 9193, 9359, 9394, 9228, 9197, 9363, 9398, 9232, 9361, 9395, 9396, 9229, 9365, 9399, 9400,
9233, 9200, 9366, 9401, 9235
1789, 9197, 9363, 9398, 9232, 9201, 9367, 9402, 9236, 9365, 9399, 9400, 9233, 9369, 9403, 9404,
9237, 9204, 9370, 9405, 9239
1790, 9201, 9367, 9402, 9236, 9205, 9371, 9406, 9240, 9369, 9403, 9404, 9237, 9373, 9407, 9408,
9241, 9208, 9374, 9409, 9243
1791, 9205, 9371, 9406, 9240, 9209, 9375, 9410, 9244, 9373, 9407, 9408, 9241, 9377, 9411, 9412,
9245, 9212, 9378, 9413, 9247
1792, 9209, 9375, 9410, 9244, 9213, 9379, 9414, 9248, 9377, 9411, 9412, 9245, 9381, 9415, 9416,
9249, 9216, 9382, 9417, 9251
1793, 9252, 9418, 9419, 9253, 9254, 9420, 9421, 9255, 9422, 9423, 9424, 9257, 9425, 9426, 9427,
9260, 9262, 9428, 9429, 9263
1794, 9254, 9420, 9421, 9255, 9264, 9430, 9431, 9265, 9425, 9426, 9427, 9260, 9432, 9433, 9434,
9267, 9269, 9435, 9436, 9270
1795, 9264, 9430, 9431, 9265, 9271, 9437, 9438, 9272, 9432, 9433, 9434, 9267, 9439, 9440, 9441,
9274, 9276, 9442, 9443, 9277
1796, 9271, 9437, 9438, 9272, 9278, 9444, 9445, 9279, 9439, 9440, 9441, 9274, 9446, 9447, 9448,
9281, 9283, 9449, 9450, 9284
1797, 9278, 9444, 9445, 9279, 9285, 9451, 9452, 9286, 9446, 9447, 9448, 9281, 9453, 9454, 9455,
9288, 9290, 9456, 9457, 9291
1798, 9285, 9451, 9452, 9286, 9292, 9458, 9459, 9293, 9453, 9454, 9455, 9288, 9460, 9461, 9462,
9295, 9297, 9463, 9464, 9298
1799, 9292, 9458, 9459, 9293, 9299, 9465, 9466, 9300, 9460, 9461, 9462, 9295, 9467, 9468, 9469,
9302, 9304, 9470, 9471, 9305
1800, 9299, 9465, 9466, 9300, 9306, 9472, 9473, 9307, 9467, 9468, 9469, 9302, 9474, 9475, 9476,
9309, 9311, 9477, 9478, 9312
1801, 9253, 9419, 9479, 9313, 9255, 9421, 9480, 9314, 9424, 9481, 9482, 9315, 9427, 9483, 9484,
9317, 9263, 9429, 9485, 9319
1802, 9255, 9421, 9480, 9314, 9265, 9431, 9486, 9320, 9427, 9483, 9484, 9317, 9434, 9487, 9488,
9321, 9270, 9436, 9489, 9323
1803, 9265, 9431, 9486, 9320, 9272, 9438, 9490, 9324, 9434, 9487, 9488, 9321, 9441, 9491, 9492,
9325, 9277, 9443, 9493, 9327
1804, 9272, 9438, 9490, 9324, 9279, 9445, 9494, 9328, 9441, 9491, 9492, 9325, 9448, 9495, 9496,
9329, 9284, 9450, 9497, 9331
1805, 9279, 9445, 9494, 9328, 9286, 9452, 9498, 9332, 9448, 9495, 9496, 9329, 9455, 9499, 9500,
9333, 9291, 9457, 9501, 9335
1806, 9286, 9452, 9498, 9332, 9293, 9459, 9502, 9336, 9455, 9499, 9500, 9333, 9462, 9503, 9504,
9337, 9298, 9464, 9505, 9339
1807, 9293, 9459, 9502, 9336, 9300, 9466, 9506, 9340, 9462, 9503, 9504, 9337, 9469, 9507, 9508,
9341, 9305, 9471, 9509, 9343
1808, 9300, 9466, 9506, 9340, 9307, 9473, 9510, 9344, 9469, 9507, 9508, 9341, 9476, 9511, 9512,
9345, 9312, 9478, 9513, 9347
1809, 9313, 9479, 9514, 9348, 9314, 9480, 9515, 9349, 9482, 9516, 9517, 9350, 9484, 9518, 9519,
9352, 9319, 9485, 9520, 9354
1810, 9314, 9480, 9515, 9349, 9320, 9486, 9521, 9355, 9484, 9518, 9519, 9352, 9488, 9522, 9523,
9356, 9323, 9489, 9524, 9358
1811, 9320, 9486, 9521, 9355, 9324, 9490, 9525, 9359, 9488, 9522, 9523, 9356, 9492, 9526, 9527,
9360, 9327, 9493, 9528, 9362
1812, 9324, 9490, 9525, 9359, 9328, 9494, 9529, 9363, 9492, 9526, 9527, 9360, 9496, 9530, 9531,
9364, 9331, 9497, 9532, 9366
1813, 9328, 9494, 9529, 9363, 9332, 9498, 9533, 9367, 9496, 9530, 9531, 9364, 9500, 9534, 9535,
9368, 9335, 9501, 9536, 9370
1814, 9332, 9498, 9533, 9367, 9336, 9502, 9537, 9371, 9500, 9534, 9535, 9368, 9504, 9538, 9539,
9372, 9339, 9505, 9540, 9374
1815, 9336, 9502, 9537, 9371, 9340, 9506, 9541, 9375, 9504, 9538, 9539, 9372, 9508, 9542, 9543,
9376, 9343, 9509, 9544, 9378
1816, 9340, 9506, 9541, 9375, 9344, 9510, 9545, 9379, 9508, 9542, 9543, 9376, 9512, 9546, 9547,
9380, 9347, 9513, 9548, 9382
1817, 9348, 9514, 9549, 9383, 9349, 9515, 9550, 9384, 9517, 9551, 9552, 9385, 9519, 9553, 9554,
9387, 9354, 9520, 9555, 9389
1818, 9349, 9515, 9550, 9384, 9355, 9521, 9556, 9390, 9519, 9553, 9554, 9387, 9523, 9557, 9558,
9391, 9358, 9524, 9559, 9393
1819, 9355, 9521, 9556, 9390, 9359, 9525, 9560, 9394, 9523, 9557, 9558, 9391, 9527, 9561, 9562,
9395, 9362, 9528, 9563, 9397
1820, 9359, 9525, 9560, 9394, 9363, 9529, 9564, 9398, 9527, 9561, 9562, 9395, 9531, 9565, 9566,
9399, 9366, 9532, 9567, 9401
1821, 9363, 9529, 9564, 9398, 9367, 9533, 9568, 9402, 9531, 9565, 9566, 9399, 9535, 9569, 9570,
9403, 9370, 9536, 9571, 9405
1822, 9367, 9533, 9568, 9402, 9371, 9537, 9572, 9406, 9535, 9569, 9570, 9403, 9539, 9573, 9574,
9407, 9374, 9540, 9575, 9409
1823, 9371, 9537, 9572, 9406, 9375, 9541, 9576, 9410, 9539, 9573, 9574, 9407, 9543, 9577, 9578,
9411, 9378, 9544, 9579, 9413
1824, 9375, 9541, 9576, 9410, 9379, 9545, 9580, 9414, 9543, 9577, 9578, 9411, 9547, 9581, 9582,
9415, 9382, 9548, 9583, 9417
1825, 9418, 9584, 9585, 9419, 9420, 9586, 9587, 9421, 9588, 9589, 9590, 9423, 9591, 9592, 9593,
9426, 9428, 9594, 9595, 9429
1826, 9420, 9586, 9587, 9421, 9430, 9596, 9597, 9431, 9591, 9592, 9593, 9426, 9598, 9599, 9600,
9433, 9435, 9601, 9602, 9436
1827, 9430, 9596, 9597, 9431, 9437, 9603, 9604, 9438, 9598, 9599, 9600, 9433, 9605, 9606, 9607,
9440, 9442, 9608, 9609, 9443
1828, 9437, 9603, 9604, 9438, 9444, 9610, 9611, 9445, 9605, 9606, 9607, 9440, 9612, 9613, 9614,
9447, 9449, 9615, 9616, 9450
1829, 9444, 9610, 9611, 9445, 9451, 9617, 9618, 9452, 9612, 9613, 9614, 9447, 9619, 9620, 9621,
9454, 9456, 9622, 9623, 9457
1830, 9451, 9617, 9618, 9452, 9458, 9624, 9625, 9459, 9619, 9620, 9621, 9454, 9626, 9627, 9628,
9461, 9463, 9629, 9630, 9464
1831, 9458, 9624, 9625, 9459, 9465, 9631, 9632, 9466, 9626, 9627, 9628, 9461, 9633, 9634, 9635,
9468, 9470, 9636, 9637, 9471
1832, 9465, 9631, 9632, 9466, 9472, 9638, 9639, 9473, 9633, 9634, 9635, 9468, 9640, 9641, 9642,
9475, 9477, 9643, 9644, 9478
1833, 9419, 9585, 9645, 9479, 9421, 9587, 9646, 9480, 9590, 9647, 9648, 9481, 9593, 9649, 9650,
9483, 9429, 9595, 9651, 9485
1834, 9421, 9587, 9646, 9480, 9431, 9597, 9652, 9486, 9593, 9649, 9650, 9483, 9600, 9653, 9654,
9487, 9436, 9602, 9655, 9489
1835, 9431, 9597, 9652, 9486, 9438, 9604, 9656, 9490, 9600, 9653, 9654, 9487, 9607, 9657, 9658,
9491, 9443, 9609, 9659, 9493
1836, 9438, 9604, 9656, 9490, 9445, 9611, 9660, 9494, 9607, 9657, 9658, 9491, 9614, 9661, 9662,
9495, 9450, 9616, 9663, 9497
1837, 9445, 9611, 9660, 9494, 9452, 9618, 9664, 9498, 9614, 9661, 9662, 9495, 9621, 9665, 9666,
9499, 9457, 9623, 9667, 9501
1838, 9452, 9618, 9664, 9498, 9459, 9625, 9668, 9502, 9621, 9665, 9666, 9499, 9628, 9669, 9670,
9503, 9464, 9630, 9671, 9505
1839, 9459, 9625, 9668, 9502, 9466, 9632, 9672, 9506, 9628, 9669, 9670, 9503, 9635, 9673, 9674,
9507, 9471, 9637, 9675, 9509
1840, 9466, 9632, 9672, 9506, 9473, 9639, 9676, 9510, 9635, 9673, 9674, 9507, 9642, 9677, 9678,
9511, 9478, 9644, 9679, 9513
1841, 9479, 9645, 9680, 9514, 9480, 9646, 9681, 9515, 9648, 9682, 9683, 9516, 9650, 9684, 9685,
9518, 9485, 9651, 9686, 9520
1842, 9480, 9646, 9681, 9515, 9486, 9652, 9687, 9521, 9650, 9684, 9685, 9518, 9654, 9688, 9689,
9522, 9489, 9655, 9690, 9524
1843, 9486, 9652, 9687, 9521, 9490, 9656, 9691, 9525, 9654, 9688, 9689, 9522, 9658, 9692, 9693,
9526, 9493, 9659, 9694, 9528
1844, 9490, 9656, 9691, 9525, 9494, 9660, 9695, 9529, 9658, 9692, 9693, 9526, 9662, 9696, 9697,
9530, 9497, 9663, 9698, 9532
1845, 9494, 9660, 9695, 9529, 9498, 9664, 9699, 9533, 9662, 9696, 9697, 9530, 9666, 9700, 9701,
9534, 9501, 9667, 9702, 9536
1846, 9498, 9664, 9699, 9533, 9502, 9668, 9703, 9537, 9666, 9700, 9701, 9534, 9670, 9704, 9705,
9538, 9505, 9671, 9706, 9540
1847, 9502, 9668, 9703, 9537, 9506, 9672, 9707, 9541, 9670, 9704, 9705, 9538, 9674, 9708, 9709,
9542, 9509, 9675, 9710, 9544
1848, 9506, 9672, 9707, 9541, 9510, 9676, 9711, 9545, 9674, 9708, 9709, 9542, 9678, 9712, 9713,
9546, 9513, 9679, 9714, 9548
1849, 9514, 9680, 9715, 9549, 9515, 9681, 9716, 9550, 9683, 9717, 9718, 9551, 9685, 9719, 9720,
9553, 9520, 9686, 9721, 9555
1850, 9515, 9681, 9716, 9550, 9521, 9687, 9722, 9556, 9685, 9719, 9720, 9553, 9689, 9723, 9724,
9557, 9524, 9690, 9725, 9559
1851, 9521, 9687, 9722, 9556, 9525, 9691, 9726, 9560, 9689, 9723, 9724, 9557, 9693, 9727, 9728,
9561, 9528, 9694, 9729, 9563
1852, 9525, 9691, 9726, 9560, 9529, 9695, 9730, 9564, 9693, 9727, 9728, 9561, 9697, 9731, 9732,
9565, 9532, 9698, 9733, 9567
1853, 9529, 9695, 9730, 9564, 9533, 9699, 9734, 9568, 9697, 9731, 9732, 9565, 9701, 9735, 9736,
9569, 9536, 9702, 9737, 9571
1854, 9533, 9699, 9734, 9568, 9537, 9703, 9738, 9572, 9701, 9735, 9736, 9569, 9705, 9739, 9740,
9573, 9540, 9706, 9741, 9575
1855, 9537, 9703, 9738, 9572, 9541, 9707, 9742, 9576, 9705, 9739, 9740, 9573, 9709, 9743, 9744,
9577, 9544, 9710, 9745, 9579
1856, 9541, 9707, 9742, 9576, 9545, 9711, 9746, 9580, 9709, 9743, 9744, 9577, 9713, 9747, 9748,
9581, 9548, 9714, 9749, 9583
1857, 9584, 9750, 9751, 9585, 9586, 9752, 9753, 9587, 9754, 9755, 9756, 9589, 9757, 9758, 9759,
9592, 9594, 9760, 9761, 9595
1858, 9586, 9752, 9753, 9587, 9596, 9762, 9763, 9597, 9757, 9758, 9759, 9592, 9764, 9765, 9766,
9599, 9601, 9767, 9768, 9602
1859, 9596, 9762, 9763, 9597, 9603, 9769, 9770, 9604, 9764, 9765, 9766, 9599, 9771, 9772, 9773,
9606, 9608, 9774, 9775, 9609
1860, 9603, 9769, 9770, 9604, 9610, 9776, 9777, 9611, 9771, 9772, 9773, 9606, 9778, 9779, 9780,
9613, 9615, 9781, 9782, 9616
1861, 9610, 9776, 9777, 9611, 9617, 9783, 9784, 9618, 9778, 9779, 9780, 9613, 9785, 9786, 9787,
9620, 9622, 9788, 9789, 9623
1862, 9617, 9783, 9784, 9618, 9624, 9790, 9791, 9625, 9785, 9786, 9787, 9620, 9792, 9793, 9794,
9627, 9629, 9795, 9796, 9630
1863, 9624, 9790, 9791, 9625, 9631, 9797, 9798, 9632, 9792, 9793, 9794, 9627, 9799, 9800, 9801,
9634, 9636, 9802, 9803, 9637
1864, 9631, 9797, 9798, 9632, 9638, 9804, 9805, 9639, 9799, 9800, 9801, 9634, 9806, 9807, 9808,
9641, 9643, 9809, 9810, 9644
1865, 9585, 9751, 9811, 9645, 9587, 9753, 9812, 9646, 9756, 9813, 9814, 9647, 9759, 9815, 9816,
9649, 9595, 9761, 9817, 9651
1866, 9587, 9753, 9812, 9646, 9597, 9763, 9818, 9652, 9759, 9815, 9816, 9649, 9766, 9819, 9820,
9653, 9602, 9768, 9821, 9655
1867, 9597, 9763, 9818, 9652, 9604, 9770, 9822, 9656, 9766, 9819, 9820, 9653, 9773, 9823, 9824,
9657, 9609, 9775, 9825, 9659
1868, 9604, 9770, 9822, 9656, 9611, 9777, 9826, 9660, 9773, 9823, 9824, 9657, 9780, 9827, 9828,
9661, 9616, 9782, 9829, 9663
1869, 9611, 9777, 9826, 9660, 9618, 9784, 9830, 9664, 9780, 9827, 9828, 9661, 9787, 9831, 9832,
9665, 9623, 9789, 9833, 9667
1870, 9618, 9784, 9830, 9664, 9625, 9791, 9834, 9668, 9787, 9831, 9832, 9665, 9794, 9835, 9836,
9669, 9630, 9796, 9837, 9671
1871, 9625, 9791, 9834, 9668, 9632, 9798, 9838, 9672, 9794, 9835, 9836, 9669, 9801, 9839, 9840,
9673, 9637, 9803, 9841, 9675
1872, 9632, 9798, 9838, 9672, 9639, 9805, 9842, 9676, 9801, 9839, 9840, 9673, 9808, 9843, 9844,
9677, 9644, 9810, 9845, 9679
1873, 9645, 9811, 9846, 9680, 9646, 9812, 9847, 9681, 9814, 9848, 9849, 9682, 9816, 9850, 9851,
9684, 9651, 9817, 9852, 9686
1874, 9646, 9812, 9847, 9681, 9652, 9818, 9853, 9687, 9816, 9850, 9851, 9684, 9820, 9854, 9855,
9688, 9655, 9821, 9856, 9690
1875, 9652, 9818, 9853, 9687, 9656, 9822, 9857, 9691, 9820, 9854, 9855, 9688, 9824, 9858, 9859,
9692, 9659, 9825, 9860, 9694
1876, 9656, 9822, 9857, 9691, 9660, 9826, 9861, 9695, 9824, 9858, 9859, 9692, 9828, 9862, 9863,
9696, 9663, 9829, 9864, 9698
1877, 9660, 9826, 9861, 9695, 9664, 9830, 9865, 9699, 9828, 9862, 9863, 9696, 9832, 9866, 9867,
9700, 9667, 9833, 9868, 9702
1878, 9664, 9830, 9865, 9699, 9668, 9834, 9869, 9703, 9832, 9866, 9867, 9700, 9836, 9870, 9871,
9704, 9671, 9837, 9872, 9706
1879, 9668, 9834, 9869, 9703, 9672, 9838, 9873, 9707, 9836, 9870, 9871, 9704, 9840, 9874, 9875,
9708, 9675, 9841, 9876, 9710
1880, 9672, 9838, 9873, 9707, 9676, 9842, 9877, 9711, 9840, 9874, 9875, 9708, 9844, 9878, 9879,
9712, 9679, 9845, 9880, 9714
1881, 9680, 9846, 9881, 9715, 9681, 9847, 9882, 9716, 9849, 9883, 9884, 9717, 9851, 9885, 9886,
9719, 9686, 9852, 9887, 9721
1882, 9681, 9847, 9882, 9716, 9687, 9853, 9888, 9722, 9851, 9885, 9886, 9719, 9855, 9889, 9890,
9723, 9690, 9856, 9891, 9725
1883, 9687, 9853, 9888, 9722, 9691, 9857, 9892, 9726, 9855, 9889, 9890, 9723, 9859, 9893, 9894,
9727, 9694, 9860, 9895, 9729
1884, 9691, 9857, 9892, 9726, 9695, 9861, 9896, 9730, 9859, 9893, 9894, 9727, 9863, 9897, 9898,
9731, 9698, 9864, 9899, 9733
1885, 9695, 9861, 9896, 9730, 9699, 9865, 9900, 9734, 9863, 9897, 9898, 9731, 9867, 9901, 9902,
9735, 9702, 9868, 9903, 9737
1886, 9699, 9865, 9900, 9734, 9703, 9869, 9904, 9738, 9867, 9901, 9902, 9735, 9871, 9905, 9906,
9739, 9706, 9872, 9907, 9741
1887, 9703, 9869, 9904, 9738, 9707, 9873, 9908, 9742, 9871, 9905, 9906, 9739, 9875, 9909, 9910,
9743, 9710, 9876, 9911, 9745
1888, 9707, 9873, 9908, 9742, 9711, 9877, 9912, 9746, 9875, 9909, 9910, 9743, 9879, 9913, 9914,
9747, 9714, 9880, 9915, 9749
1889, 9750, 9916, 9917, 9751, 9752, 9918, 9919, 9753, 9920, 9921, 9922, 9755, 9923, 9924, 9925,
9758, 9760, 9926, 9927, 9761
1890, 9752, 9918, 9919, 9753, 9762, 9928, 9929, 9763, 9923, 9924, 9925, 9758, 9930, 9931, 9932,
9765, 9767, 9933, 9934, 9768
1891, 9762, 9928, 9929, 9763, 9769, 9935, 9936, 9770, 9930, 9931, 9932, 9765, 9937, 9938, 9939,
9772, 9774, 9940, 9941, 9775
1892, 9769, 9935, 9936, 9770, 9776, 9942, 9943, 9777, 9937, 9938, 9939, 9772, 9944, 9945, 9946,
9779, 9781, 9947, 9948, 9782
1893, 9776, 9942, 9943, 9777, 9783, 9949, 9950, 9784, 9944, 9945, 9946, 9779, 9951, 9952, 9953,
9786, 9788, 9954, 9955, 9789
1894, 9783, 9949, 9950, 9784, 9790, 9956, 9957, 9791, 9951, 9952, 9953, 9786, 9958, 9959, 9960,
9793, 9795, 9961, 9962, 9796
1895, 9790, 9956, 9957, 9791, 9797, 9963, 9964, 9798, 9958, 9959, 9960, 9793, 9965, 9966, 9967,
9800, 9802, 9968, 9969, 9803
1896, 9797, 9963, 9964, 9798, 9804, 9970, 9971, 9805, 9965, 9966, 9967, 9800, 9972, 9973, 9974,
9807, 9809, 9975, 9976, 9810
1897, 9751, 9917, 9977, 9811, 9753, 9919, 9978, 9812, 9922, 9979, 9980, 9813, 9925, 9981, 9982,
9815, 9761, 9927, 9983, 9817
1898, 9753, 9919, 9978, 9812, 9763, 9929, 9984, 9818, 9925, 9981, 9982, 9815, 9932, 9985, 9986,
9819, 9768, 9934, 9987, 9821
1899, 9763, 9929, 9984, 9818, 9770, 9936, 9988, 9822, 9932, 9985, 9986, 9819, 9939, 9989, 9990,
9823, 9775, 9941, 9991, 9825
1900, 9770, 9936, 9988, 9822, 9777, 9943, 9992, 9826, 9939, 9989, 9990, 9823, 9946, 9993, 9994,
9827, 9782, 9948, 9995, 9829
1901, 9777, 9943, 9992, 9826, 9784, 9950, 9996, 9830, 9946, 9993, 9994, 9827, 9953, 9997, 9998,
9831, 9789, 9955, 9999, 9833
1902, 9784, 9950, 9996, 9830, 9791, 9957, 10000, 9834, 9953, 9997, 9998, 9831, 9960, 10001, 10002,
9835, 9796, 9962, 10003, 9837
1903, 9791, 9957, 10000, 9834, 9798, 9964, 10004, 9838, 9960, 10001, 10002, 9835, 9967, 10005, 10006,
9839, 9803, 9969, 10007, 9841
1904, 9798, 9964, 10004, 9838, 9805, 9971, 10008, 9842, 9967, 10005, 10006, 9839, 9974, 10009, 10010,
9843, 9810, 9976, 10011, 9845
1905, 9811, 9977, 10012, 9846, 9812, 9978, 10013, 9847, 9980, 10014, 10015, 9848, 9982, 10016, 10017,
9850, 9817, 9983, 10018, 9852
1906, 9812, 9978, 10013, 9847, 9818, 9984, 10019, 9853, 9982, 10016, 10017, 9850, 9986, 10020, 10021,
9854, 9821, 9987, 10022, 9856
1907, 9818, 9984, 10019, 9853, 9822, 9988, 10023, 9857, 9986, 10020, 10021, 9854, 9990, 10024, 10025,
9858, 9825, 9991, 10026, 9860
1908, 9822, 9988, 10023, 9857, 9826, 9992, 10027, 9861, 9990, 10024, 10025, 9858, 9994, 10028, 10029,
9862, 9829, 9995, 10030, 9864
1909, 9826, 9992, 10027, 9861, 9830, 9996, 10031, 9865, 9994, 10028, 10029, 9862, 9998, 10032, 10033,
9866, 9833, 9999, 10034, 9868
1910, 9830, 9996, 10031, 9865, 9834, 10000, 10035, 9869, 9998, 10032, 10033, 9866, 10002, 10036, 10037,
9870, 9837, 10003, 10038, 9872
1911, 9834, 10000, 10035, 9869, 9838, 10004, 10039, 9873, 10002, 10036, 10037, 9870, 10006, 10040, 10041,
9874, 9841, 10007, 10042, 9876
1912, 9838, 10004, 10039, 9873, 9842, 10008, 10043, 9877, 10006, 10040, 10041, 9874, 10010, 10044, 10045,
9878, 9845, 10011, 10046, 9880
1913, 9846, 10012, 10047, 9881, 9847, 10013, 10048, 9882, 10015, 10049, 10050, 9883, 10017, 10051, 10052,
9885, 9852, 10018, 10053, 9887
1914, 9847, 10013, 10048, 9882, 9853, 10019, 10054, 9888, 10017, 10051, 10052, 9885, 10021, 10055, 10056,
9889, 9856, 10022, 10057, 9891
1915, 9853, 10019, 10054, 9888, 9857, 10023, 10058, 9892, 10021, 10055, 10056, 9889, 10025, 10059, 10060,
9893, 9860, 10026, 10061, 9895
1916, 9857, 10023, 10058, 9892, 9861, 10027, 10062, 9896, 10025, 10059, 10060, 9893, 10029, 10063, 10064,
9897, 9864, 10030, 10065, 9899
1917, 9861, 10027, 10062, 9896, 9865, 10031, 10066, 9900, 10029, 10063, 10064, 9897, 10033, 10067, 10068,
9901, 9868, 10034, 10069, 9903
1918, 9865, 10031, 10066, 9900, 9869, 10035, 10070, 9904, 10033, 10067, 10068, 9901, 10037, 10071, 10072,
9905, 9872, 10038, 10073, 9907
1919, 9869, 10035, 10070, 9904, 9873, 10039, 10074, 9908, 10037, 10071, 10072, 9905, 10041, 10075, 10076,
9909, 9876, 10042, 10077, 9911
1920, 9873, 10039, 10074, 9908, 9877, 10043, 10078, 9912, 10041, 10075, 10076, 9909, 10045, 10079, 10080,
9913, 9880, 10046, 10081, 9915
1921, 9916, 10082, 10083, 9917, 9918, 10084, 10085, 9919, 10086, 10087, 10088, 9921, 10089, 10090, 10091,
9924, 9926, 10092, 10093, 9927
1922, 9918, 10084, 10085, 9919, 9928, 10094, 10095, 9929, 10089, 10090, 10091, 9924, 10096, 10097, 10098,
9931, 9933, 10099, 10100, 9934
1923, 9928, 10094, 10095, 9929, 9935, 10101, 10102, 9936, 10096, 10097, 10098, 9931, 10103, 10104, 10105,
9938, 9940, 10106, 10107, 9941
1924, 9935, 10101, 10102, 9936, 9942, 10108, 10109, 9943, 10103, 10104, 10105, 9938, 10110, 10111, 10112,
9945, 9947, 10113, 10114, 9948
1925, 9942, 10108, 10109, 9943, 9949, 10115, 10116, 9950, 10110, 10111, 10112, 9945, 10117, 10118, 10119,
9952, 9954, 10120, 10121, 9955
1926, 9949, 10115, 10116, 9950, 9956, 10122, 10123, 9957, 10117, 10118, 10119, 9952, 10124, 10125, 10126,
9959, 9961, 10127, 10128, 9962
1927, 9956, 10122, 10123, 9957, 9963, 10129, 10130, 9964, 10124, 10125, 10126, 9959, 10131, 10132, 10133,
9966, 9968, 10134, 10135, 9969
1928, 9963, 10129, 10130, 9964, 9970, 10136, 10137, 9971, 10131, 10132, 10133, 9966, 10138, 10139, 10140,
9973, 9975, 10141, 10142, 9976
1929, 9917, 10083, 10143, 9977, 9919, 10085, 10144, 9978, 10088, 10145, 10146, 9979, 10091, 10147, 10148,
9981, 9927, 10093, 10149, 9983
1930, 9919, 10085, 10144, 9978, 9929, 10095, 10150, 9984, 10091, 10147, 10148, 9981, 10098, 10151, 10152,
9985, 9934, 10100, 10153, 9987
1931, 9929, 10095, 10150, 9984, 9936, 10102, 10154, 9988, 10098, 10151, 10152, 9985, 10105, 10155, 10156,
9989, 9941, 10107, 10157, 9991
1932, 9936, 10102, 10154, 9988, 9943, 10109, 10158, 9992, 10105, 10155, 10156, 9989, 10112, 10159, 10160,
9993, 9948, 10114, 10161, 9995
1933, 9943, 10109, 10158, 9992, 9950, 10116, 10162, 9996, 10112, 10159, 10160, 9993, 10119, 10163, 10164,
9997, 9955, 10121, 10165, 9999
1934, 9950, 10116, 10162, 9996, 9957, 10123, 10166, 10000, 10119, 10163, 10164, 9997, 10126, 10167, 10168,
10001, 9962, 10128, 10169, 10003
1935, 9957, 10123, 10166, 10000, 9964, 10130, 10170, 10004, 10126, 10167, 10168, 10001, 10133, 10171, 10172,
10005, 9969, 10135, 10173, 10007
1936, 9964, 10130, 10170, 10004, 9971, 10137, 10174, 10008, 10133, 10171, 10172, 10005, 10140, 10175, 10176,
10009, 9976, 10142, 10177, 10011
1937, 9977, 10143, 10178, 10012, 9978, 10144, 10179, 10013, 10146, 10180, 10181, 10014, 10148, 10182, 10183,
10016, 9983, 10149, 10184, 10018
1938, 9978, 10144, 10179, 10013, 9984, 10150, 10185, 10019, 10148, 10182, 10183, 10016, 10152, 10186, 10187,
10020, 9987, 10153, 10188, 10022
1939, 9984, 10150, 10185, 10019, 9988, 10154, 10189, 10023, 10152, 10186, 10187, 10020, 10156, 10190, 10191,
10024, 9991, 10157, 10192, 10026
1940, 9988, 10154, 10189, 10023, 9992, 10158, 10193, 10027, 10156, 10190, 10191, 10024, 10160, 10194, 10195,
10028, 9995, 10161, 10196, 10030
1941, 9992, 10158, 10193, 10027, 9996, 10162, 10197, 10031, 10160, 10194, 10195, 10028, 10164, 10198, 10199,
10032, 9999, 10165, 10200, 10034
1942, 9996, 10162, 10197, 10031, 10000, 10166, 10201, 10035, 10164, 10198, 10199, 10032, 10168, 10202, 10203,
10036, 10003, 10169, 10204, 10038
1943, 10000, 10166, 10201, 10035, 10004, 10170, 10205, 10039, 10168, 10202, 10203, 10036, 10172, 10206, 10207,
10040, 10007, 10173, 10208, 10042
1944, 10004, 10170, 10205, 10039, 10008, 10174, 10209, 10043, 10172, 10206, 10207, 10040, 10176, 10210, 10211,
10044, 10011, 10177, 10212, 10046
1945, 10012, 10178, 10213, 10047, 10013, 10179, 10214, 10048, 10181, 10215, 10216, 10049, 10183, 10217, 10218,
10051, 10018, 10184, 10219, 10053
1946, 10013, 10179, 10214, 10048, 10019, 10185, 10220, 10054, 10183, 10217, 10218, 10051, 10187, 10221, 10222,
10055, 10022, 10188, 10223, 10057
1947, 10019, 10185, 10220, 10054, 10023, 10189, 10224, 10058, 10187, 10221, 10222, 10055, 10191, 10225, 10226,
10059, 10026, 10192, 10227, 10061
1948, 10023, 10189, 10224, 10058, 10027, 10193, 10228, 10062, 10191, 10225, 10226, 10059, 10195, 10229, 10230,
10063, 10030, 10196, 10231, 10065
1949, 10027, 10193, 10228, 10062, 10031, 10197, 10232, 10066, 10195, 10229, 10230, 10063, 10199, 10233, 10234,
10067, 10034, 10200, 10235, 10069
1950, 10031, 10197, 10232, 10066, 10035, 10201, 10236, 10070, 10199, 10233, 10234, 10067, 10203, 10237, 10238,
10071, 10038, 10204, 10239, 10073
1951, 10035, 10201, 10236, 10070, 10039, 10205, 10240, 10074, 10203, 10237, 10238, 10071, 10207, 10241, 10242,
10075, 10042, 10208, 10243, 10077
1952, 10039, 10205, 10240, 10074, 10043, 10209, 10244, 10078, 10207, 10241, 10242, 10075, 10211, 10245, 10246,
10079, 10046, 10212, 10247, 10081
1953, 10082, 10248, 10249, 10083, 10084, 10250, 10251, 10085, 10252, 10253, 10254, 10087, 10255, 10256, 10257,
10090, 10092, 10258, 10259, 10093
1954, 10084, 10250, 10251, 10085, 10094, 10260, 10261, 10095, 10255, 10256, 10257, 10090, 10262, 10263, 10264,
10097, 10099, 10265, 10266, 10100
1955, 10094, 10260, 10261, 10095, 10101, 10267, 10268, 10102, 10262, 10263, 10264, 10097, 10269, 10270, 10271,
10104, 10106, 10272, 10273, 10107
1956, 10101, 10267, 10268, 10102, 10108, 10274, 10275, 10109, 10269, 10270, 10271, 10104, 10276, 10277, 10278,
10111, 10113, 10279, 10280, 10114
1957, 10108, 10274, 10275, 10109, 10115, 10281, 10282, 10116, 10276, 10277, 10278, 10111, 10283, 10284, 10285,
10118, 10120, 10286, 10287, 10121
1958, 10115, 10281, 10282, 10116, 10122, 10288, 10289, 10123, 10283, 10284, 10285, 10118, 10290, 10291, 10292,
10125, 10127, 10293, 10294, 10128
1959, 10122, 10288, 10289, 10123, 10129, 10295, 10296, 10130, 10290, 10291, 10292, 10125, 10297, 10298, 10299,
10132, 10134, 10300, 10301, 10135
1960, 10129, 10295, 10296, 10130, 10136, 10302, 10303, 10137, 10297, 10298, 10299, 10132, 10304, 10305, 10306,
10139, 10141, 10307, 10308, 10142
1961, 10083, 10249, 10309, 10143, 10085, 10251, 10310, 10144, 10254, 10311, 10312, 10145, 10257, 10313, 10314,
10147, 10093, 10259, 10315, 10149
1962, 10085, 10251, 10310, 10144, 10095, 10261, 10316, 10150, 10257, 10313, 10314, 10147, 10264, 10317, 10318,
10151, 10100, 10266, 10319, 10153
1963, 10095, 10261, 10316, 10150, 10102, 10268, 10320, 10154, 10264, 10317, 10318, 10151, 10271, 10321, 10322,
10155, 10107, 10273, 10323, 10157
1964, 10102, 10268, 10320, 10154, 10109, 10275, 10324, 10158, 10271, 10321, 10322, 10155, 10278, 10325, 10326,
10159, 10114, 10280, 10327, 10161
1965, 10109, 10275, 10324, 10158, 10116, 10282, 10328, 10162, 10278, 10325, 10326, 10159, 10285, 10329, 10330,
10163, 10121, 10287, 10331, 10165
1966, 10116, 10282, 10328, 10162, 10123, 10289, 10332, 10166, 10285, 10329, 10330, 10163, 10292, 10333, 10334,
10167, 10128, 10294, 10335, 10169
1967, 10123, 10289, 10332, 10166, 10130, 10296, 10336, 10170, 10292, 10333, 10334, 10167, 10299, 10337, 10338,
10171, 10135, 10301, 10339, 10173
1968, 10130, 10296, 10336, 10170, 10137, 10303, 10340, 10174, 10299, 10337, 10338, 10171, 10306, 10341, 10342,
10175, 10142, 10308, 10343, 10177
1969, 10143, 10309, 10344, 10178, 10144, 10310, 10345, 10179, 10312, 10346, 10347, 10180, 10314, 10348, 10349,
10182, 10149, 10315, 10350, 10184
1970, 10144, 10310, 10345, 10179, 10150, 10316, 10351, 10185, 10314, 10348, 10349, 10182, 10318, 10352, 10353,
10186, 10153, 10319, 10354, 10188
1971, 10150, 10316, 10351, 10185, 10154, 10320, 10355, 10189, 10318, 10352, 10353, 10186, 10322, 10356, 10357,
10190, 10157, 10323, 10358, 10192
1972, 10154, 10320, 10355, 10189, 10158, 10324, 10359, 10193, 10322, 10356, 10357, 10190, 10326, 10360, 10361,
10194, 10161, 10327, 10362, 10196
1973, 10158, 10324, 10359, 10193, 10162, 10328, 10363, 10197, 10326, 10360, 10361, 10194, 10330, 10364, 10365,
10198, 10165, 10331, 10366, 10200
1974, 10162, 10328, 10363, 10197, 10166, 10332, 10367, 10201, 10330, 10364, 10365, 10198, 10334, 10368, 10369,
10202, 10169, 10335, 10370, 10204
1975, 10166, 10332, 10367, 10201, 10170, 10336, 10371, 10205, 10334, 10368, 10369, 10202, 10338, 10372, 10373,
10206, 10173, 10339, 10374, 10208
1976, 10170, 10336, 10371, 10205, 10174, 10340, 10375, 10209, 10338, 10372, 10373, 10206, 10342, 10376, 10377,
10210, 10177, 10343, 10378, 10212
1977, 10178, 10344, 10379, 10213, 10179, 10345, 10380, 10214, 10347, 10381, 10382, 10215, 10349, 10383, 10384,
10217, 10184, 10350, 10385, 10219
1978, 10179, 10345, 10380, 10214, 10185, 10351, 10386, 10220, 10349, 10383, 10384, 10217, 10353, 10387, 10388,
10221, 10188, 10354, 10389, 10223
1979, 10185, 10351, 10386, 10220, 10189, 10355, 10390, 10224, 10353, 10387, 10388, 10221, 10357, 10391, 10392,
10225, 10192, 10358, 10393, 10227
1980, 10189, 10355, 10390, 10224, 10193, 10359, 10394, 10228, 10357, 10391, 10392, 10225, 10361, 10395, 10396,
10229, 10196, 10362, 10397, 10231
1981, 10193, 10359, 10394, 10228, 10197, 10363, 10398, 10232, 10361, 10395, 10396, 10229, 10365, 10399, 10400,
10233, 10200, 10366, 10401, 10235
1982, 10197, 10363, 10398, 10232, 10201, 10367, 10402, 10236, 10365, 10399, 10400, 10233, 10369, 10403, 10404,
10237, 10204, 10370, 10405, 10239
1983, 10201, 10367, 10402, 10236, 10205, 10371, 10406, 10240, 10369, 10403, 10404, 10237, 10373, 10407, 10408,
10241, 10208, 10374, 10409, 10243
1984, 10205, 10371, 10406, 10240, 10209, 10375, 10410, 10244, 10373, 10407, 10408, 10241, 10377, 10411, 10412,
10245, 10212, 10378, 10413, 10247
1985, 10248, 10414, 10415, 10249, 10250, 10416, 10417, 10251, 10418, 10419, 10420, 10253, 10421, 10422, 10423,
10256, 10258, 10424, 10425, 10259
1986, 10250, 10416, 10417, 10251, 10260, 10426, 10427, 10261, 10421, 10422, 10423, 10256, 10428, 10429, 10430,
10263, 10265, 10431, 10432, 10266
1987, 10260, 10426, 10427, 10261, 10267, 10433, 10434, 10268, 10428, 10429, 10430, 10263, 10435, 10436, 10437,
10270, 10272, 10438, 10439, 10273
1988, 10267, 10433, 10434, 10268, 10274, 10440, 10441, 10275, 10435, 10436, 10437, 10270, 10442, 10443, 10444,
10277, 10279, 10445, 10446, 10280
1989, 10274, 10440, 10441, 10275, 10281, 10447, 10448, 10282, 10442, 10443, 10444, 10277, 10449, 10450, 10451,
10284, 10286, 10452, 10453, 10287
1990, 10281, 10447, 10448, 10282, 10288, 10454, 10455, 10289, 10449, 10450, 10451, 10284, 10456, 10457, 10458,
10291, 10293, 10459, 10460, 10294
1991, 10288, 10454, 10455, 10289, 10295, 10461, 10462, 10296, 10456, 10457, 10458, 10291, 10463, 10464, 10465,
10298, 10300, 10466, 10467, 10301
1992, 10295, 10461, 10462, 10296, 10302, 10468, 10469, 10303, 10463, 10464, 10465, 10298, 10470, 10471, 10472,
10305, 10307, 10473, 10474, 10308
1993, 10249, 10415, 10475, 10309, 10251, 10417, 10476, 10310, 10420, 10477, 10478, 10311, 10423, 10479, 10480,
10313, 10259, 10425, 10481, 10315
1994, 10251, 10417, 10476, 10310, 10261, 10427, 10482, 10316, 10423, 10479, 10480, 10313, 10430, 10483, 10484,
10317, 10266, 10432, 10485, 10319
1995, 10261, 10427, 10482, 10316, 10268, 10434, 10486, 10320, 10430, 10483, 10484, 10317, 10437, 10487, 10488,
10321, 10273, 10439, 10489, 10323
1996, 10268, 10434, 10486, 10320, 10275, 10441, 10490, 10324, 10437, 10487, 10488, 10321, 10444, 10491, 10492,
10325, 10280, 10446, 10493, 10327
1997, 10275, 10441, 10490, 10324, 10282, 10448, 10494, 10328, 10444, 10491, 10492, 10325, 10451, 10495, 10496,
10329, 10287, 10453, 10497, 10331
1998, 10282, 10448, 10494, 10328, 10289, 10455, 10498, 10332, 10451, 10495, 10496, 10329, 10458, 10499, 10500,
10333, 10294, 10460, 10501, 10335
1999, 10289, 10455, 10498, 10332, 10296, 10462, 10502, 10336, 10458, 10499, 10500, 10333, 10465, 10503, 10504,
10337, 10301, 10467, 10505, 10339
2000, 10296, 10462, 10502, 10336, 10303, 10469, 10506, 10340, 10465, 10503, 10504, 10337, 10472, 10507, 10508,
10341, 10308, 10474, 10509, 10343
2001, 10309, 10475, 10510, 10344, 10310, 10476, 10511, 10345, 10478, 10512, 10513, 10346, 10480, 10514, 10515,
10348, 10315, 10481, 10516, 10350
2002, 10310, 10476, 10511, 10345, 10316, 10482, 10517, 10351, 10480, 10514, 10515, 10348, 10484, 10518, 10519,
10352, 10319, 10485, 10520, 10354
2003, 10316, 10482, 10517, 10351, 10320, 10486, 10521, 10355, 10484, 10518, 10519, 10352, 10488, 10522, 10523,
10356, 10323, 10489, 10524, 10358
2004, 10320, 10486, 10521, 10355, 10324, 10490, 10525, 10359, 10488, 10522, 10523, 10356, 10492, 10526, 10527,
10360, 10327, 10493, 10528, 10362
2005, 10324, 10490, 10525, 10359, 10328, 10494, 10529, 10363, 10492, 10526, 10527, 10360, 10496, 10530, 10531,
10364, 10331, 10497, 10532, 10366
2006, 10328, 10494, 10529, 10363, 10332, 10498, 10533, 10367, 10496, 10530, 10531, 10364, 10500, 10534, 10535,
10368, 10335, 10501, 10536, 10370
2007, 10332, 10498, 10533, 10367, 10336, 10502, 10537, 10371, 10500, 10534, 10535, 10368, 10504, 10538, 10539,
10372, 10339, 10505, 10540, 10374
2008, 10336, 10502, 10537, 10371, 10340, 10506, 10541, 10375, 10504, 10538, 10539, 10372, 10508, 10542, 10543,
10376, 10343, 10509, 10544, 10378
2009, 10344, 10510, 10545, 10379, 10345, 10511, 10546, 10380, 10513, 10547, 10548, 10381, 10515, 10549, 10550,
10383, 10350, 10516, 10551, 10385
2010, 10345, 10511, 10546, 10380, 10351, 10517, 10552, 10386, 10515, 10549, 10550, 10383, 10519, 10553, 10554,
10387, 10354, 10520, 10555, 10389
2011, 10351, 10517, 10552, 10386, 10355, 10521, 10556, 10390, 10519, 10553, 10554, 10387, 10523, 10557, 10558,
10391, 10358, 10524, 10559, 10393
2012, 10355, 10521, 10556, 10390, 10359, 10525, 10560, 10394, 10523, 10557, 10558, 10391, 10527, 10561, 10562,
10395, 10362, 10528, 10563, 10397
2013, 10359, 10525, 10560, 10394, 10363, 10529, 10564, 10398, 10527, 10561, 10562, 10395, 10531, 10565, 10566,
10399, 10366, 10532, 10567, 10401
2014, 10363, 10529, 10564, 10398, 10367, 10533, 10568, 10402, 10531, 10565, 10566, 10399, 10535, 10569, 10570,
10403, 10370, 10536, 10571, 10405
2015, 10367, 10533, 10568, 10402, 10371, 10537, 10572, 10406, 10535, 10569, 10570, 10403, 10539, 10573, 10574,
10407, 10374, 10540, 10575, 10409
2016, 10371, 10537, 10572, 10406, 10375, 10541, 10576, 10410, 10539, 10573, 10574, 10407, 10543, 10577, 10578,
10411, 10378, 10544, 10579, 10413
2017, 10414, 10580, 10581, 10415, 10416, 10582, 10583, 10417, 10584, 10585, 10586, 10419, 10587, 10588, 10589,
10422, 10424, 10590, 10591, 10425
2018, 10416, 10582, 10583, 10417, 10426, 10592, 10593, 10427, 10587, 10588, 10589, 10422, 10594, 10595, 10596,
10429, 10431, 10597, 10598, 10432
2019, 10426, 10592, 10593, 10427, 10433, 10599, 10600, 10434, 10594, 10595, 10596, 10429, 10601, 10602, 10603,
10436, 10438, 10604, 10605, 10439
2020, 10433, 10599, 10600, 10434, 10440, 10606, 10607, 10441, 10601, 10602, 10603, 10436, 10608, 10609, 10610,
10443, 10445, 10611, 10612, 10446
2021, 10440, 10606, 10607, 10441, 10447, 10613, 10614, 10448, 10608, 10609, 10610, 10443, 10615, 10616, 10617,
10450, 10452, 10618, 10619, 10453
2022, 10447, 10613, 10614, 10448, 10454, 10620, 10621, 10455, 10615, 10616, 10617, 10450, 10622, 10623, 10624,
10457, 10459, 10625, 10626, 10460
2023, 10454, 10620, 10621, 10455, 10461, 10627, 10628, 10462, 10622, 10623, 10624, 10457, 10629, 10630, 10631,
10464, 10466, 10632, 10633, 10467
2024, 10461, 10627, 10628, 10462, 10468, 10634, 10635, 10469, 10629, 10630, 10631, 10464, 10636, 10637, 10638,
10471, 10473, 10639, 10640, 10474
2025, 10415, 10581, 10641, 10475, 10417, 10583, 10642, 10476, 10586, 10643, 10644, 10477, 10589, 10645, 10646,
10479, 10425, 10591, 10647, 10481
2026, 10417, 10583, 10642, 10476, 10427, 10593, 10648, 10482, 10589, 10645, 10646, 10479, 10596, 10649, 10650,
10483, 10432, 10598, 10651, 10485
2027, 10427, 10593, 10648, 10482, 10434, 10600, 10652, 10486, 10596, 10649, 10650, 10483, 10603, 10653, 10654,
10487, 10439, 10605, 10655, 10489
2028, 10434, 10600, 10652, 10486, 10441, 10607, 10656, 10490, 10603, 10653, 10654, 10487, 10610, 10657, 10658,
10491, 10446, 10612, 10659, 10493
2029, 10441, 10607, 10656, 10490, 10448, 10614, 10660, 10494, 10610, 10657, 10658, 10491, 10617, 10661, 10662,
10495, 10453, 10619, 10663, 10497
2030, 10448, 10614, 10660, 10494, 10455, 10621, 10664, 10498, 10617, 10661, 10662, 10495, 10624, 10665, 10666,
10499, 10460, 10626, 10667, 10501
2031, 10455, 10621, 10664, 10498, 10462, 10628, 10668, 10502, 10624, 10665, 10666, 10499, 10631, 10669, 10670,
10503, 10467, 10633, 10671, 10505
2032, 10462, 10628, 10668, 10502, 10469, 10635, 10672, 10506, 10631, 10669, 10670, 10503, 10638, 10673, 10674,
10507, 10474, 10640, 10675, 10509
2033, 10475, 10641, 10676, 10510, 10476, 10642, 10677, 10511, 10644, 10678, 10679, 10512, 10646, 10680, 10681,
10514, 10481, 10647, 10682, 10516
2034, 10476, 10642, 10677, 10511, 10482, 10648, 10683, 10517, 10646, 10680, 10681, 10514, 10650, 10684, 10685,
10518, 10485, 10651, 10686, 10520
2035, 10482, 10648, 10683, 10517, 10486, 10652, 10687, 10521, 10650, 10684, 10685, 10518, 10654, 10688, 10689,
10522, 10489, 10655, 10690, 10524
2036, 10486, 10652, 10687, 10521, 10490, 10656, 10691, 10525, 10654, 10688, 10689, 10522, 10658, 10692, 10693,
10526, 10493, 10659, 10694, 10528
2037, 10490, 10656, 10691, 10525, 10494, 10660, 10695, 10529, 10658, 10692, 10693, 10526, 10662, 10696, 10697,
10530, 10497, 10663, 10698, 10532
2038, 10494, 10660, 10695, 10529, 10498, 10664, 10699, 10533, 10662, 10696, 10697, 10530, 10666, 10700, 10701,
10534, 10501, 10667, 10702, 10536
2039, 10498, 10664, 10699, 10533, 10502, 10668, 10703, 10537, 10666, 10700, 10701, 10534, 10670, 10704, 10705,
10538, 10505, 10671, 10706, 10540
2040, 10502, 10668, 10703, 10537, 10506, 10672, 10707, 10541, 10670, 10704, 10705, 10538, 10674, 10708, 10709,
10542, 10509, 10675, 10710, 10544
2041, 10510, 10676, 10711, 10545, 10511, 10677, 10712, 10546, 10679, 10713, 10714, 10547, 10681, 10715, 10716,
10549, 10516, 10682, 10717, 10551
2042, 10511, 10677, 10712, 10546, 10517, 10683, 10718, 10552, 10681, 10715, 10716, 10549, 10685, 10719, 10720,
10553, 10520, 10686, 10721, 10555
2043, 10517, 10683, 10718, 10552, 10521, 10687, 10722, 10556, 10685, 10719, 10720, 10553, 10689, 10723, 10724,
10557, 10524, 10690, 10725, 10559
2044, 10521, 10687, 10722, 10556, 10525, 10691, 10726, 10560, 10689, 10723, 10724, 10557, 10693, 10727, 10728,
10561, 10528, 10694, 10729, 10563
2045, 10525, 10691, 10726, 10560, 10529, 10695, 10730, 10564, 10693, 10727, 10728, 10561, 10697, 10731, 10732,
10565, 10532, 10698, 10733, 10567
2046, 10529, 10695, 10730, 10564, 10533, 10699, 10734, 10568, 10697, 10731, 10732, 10565, 10701, 10735, 10736,
10569, 10536, 10702, 10737, 10571
2047, 10533, 10699, 10734, 10568, 10537, 10703, 10738, 10572, 10701, 10735, 10736, 10569, 10705, 10739, 10740,
10573, 10540, 10706, 10741, 10575
2048, 10537, 10703, 10738, 10572, 10541, 10707, 10742, 10576, 10705, 10739, 10740, 10573, 10709, 10743, 10744,
10577, 10544, 10710, 10745, 10579
2049, 10580, 10746, 10747, 10581, 10582, 10748, 10749, 10583, 10750, 10751, 10752, 10585, 10753, 10754, 10755,
10588, 10590, 10756, 10757, 10591
2050, 10582, 10748, 10749, 10583, 10592, 10758, 10759, 10593, 10753, 10754, 10755, 10588, 10760, 10761, 10762,
10595, 10597, 10763, 10764, 10598
2051, 10592, 10758, 10759, 10593, 10599, 10765, 10766, 10600, 10760, 10761, 10762, 10595, 10767, 10768, 10769,
10602, 10604, 10770, 10771, 10605
2052, 10599, 10765, 10766, 10600, 10606, 10772, 10773, 10607, 10767, 10768, 10769, 10602, 10774, 10775, 10776,
10609, 10611, 10777, 10778, 10612
2053, 10606, 10772, 10773, 10607, 10613, 10779, 10780, 10614, 10774, 10775, 10776, 10609, 10781, 10782, 10783,
10616, 10618, 10784, 10785, 10619
2054, 10613, 10779, 10780, 10614, 10620, 10786, 10787, 10621, 10781, 10782, 10783, 10616, 10788, 10789, 10790,
10623, 10625, 10791, 10792, 10626
2055, 10620, 10786, 10787, 10621, 10627, 10793, 10794, 10628, 10788, 10789, 10790, 10623, 10795, 10796, 10797,
10630, 10632, 10798, 10799, 10633
2056, 10627, 10793, 10794, 10628, 10634, 10800, 10801, 10635, 10795, 10796, 10797, 10630, 10802, 10803, 10804,
10637, 10639, 10805, 10806, 10640
2057, 10581, 10747, 10807, 10641, 10583, 10749, 10808, 10642, 10752, 10809, 10810, 10643, 10755, 10811, 10812,
10645, 10591, 10757, 10813, 10647
2058, 10583, 10749, 10808, 10642, 10593, 10759, 10814, 10648, 10755, 10811, 10812, 10645, 10762, 10815, 10816,
10649, 10598, 10764, 10817, 10651
2059, 10593, 10759, 10814, 10648, 10600, 10766, 10818, 10652, 10762, 10815, 10816, 10649, 10769, 10819, 10820,
10653, 10605, 10771, 10821, 10655
2060, 10600, 10766, 10818, 10652, 10607, 10773, 10822, 10656, 10769, 10819, 10820, 10653, 10776, 10823, 10824,
10657, 10612, 10778, 10825, 10659
2061, 10607, 10773, 10822, 10656, 10614, 10780, 10826, 10660, 10776, 10823, 10824, 10657, 10783, 10827, 10828,
10661, 10619, 10785, 10829, 10663
2062, 10614, 10780, 10826, 10660, 10621, 10787, 10830, 10664, 10783, 10827, 10828, 10661, 10790, 10831, 10832,
10665, 10626, 10792, 10833, 10667
2063, 10621, 10787, 10830, 10664, 10628, 10794, 10834, 10668, 10790, 10831, 10832, 10665, 10797, 10835, 10836,
10669, 10633, 10799, 10837, 10671
2064, 10628, 10794, 10834, 10668, 10635, 10801, 10838, 10672, 10797, 10835, 10836, 10669, 10804, 10839, 10840,
10673, 10640, 10806, 10841, 10675
2065, 10641, 10807, 10842, 10676, 10642, 10808, 10843, 10677, 10810, 10844, 10845, 10678, 10812, 10846, 10847,
10680, 10647, 10813, 10848, 10682
2066, 10642, 10808, 10843, 10677, 10648, 10814, 10849, 10683, 10812, 10846, 10847, 10680, 10816, 10850, 10851,
10684, 10651, 10817, 10852, 10686
2067, 10648, 10814, 10849, 10683, 10652, 10818, 10853, 10687, 10816, 10850, 10851, 10684, 10820, 10854, 10855,
10688, 10655, 10821, 10856, 10690
2068, 10652, 10818, 10853, 10687, 10656, 10822, 10857, 10691, 10820, 10854, 10855, 10688, 10824, 10858, 10859,
10692, 10659, 10825, 10860, 10694
2069, 10656, 10822, 10857, 10691, 10660, 10826, 10861, 10695, 10824, 10858, 10859, 10692, 10828, 10862, 10863,
10696, 10663, 10829, 10864, 10698
2070, 10660, 10826, 10861, 10695, 10664, 10830, 10865, 10699, 10828, 10862, 10863, 10696, 10832, 10866, 10867,
10700, 10667, 10833, 10868, 10702
2071, 10664, 10830, 10865, 10699, 10668, 10834, 10869, 10703, 10832, 10866, 10867, 10700, 10836, 10870, 10871,
10704, 10671, 10837, 10872, 10706
2072, 10668, 10834, 10869, 10703, 10672, 10838, 10873, 10707, 10836, 10870, 10871, 10704, 10840, 10874, 10875,
10708, 10675, 10841, 10876, 10710
2073, 10676, 10842, 10877, 10711, 10677, 10843, 10878, 10712, 10845, 10879, 10880, 10713, 10847, 10881, 10882,
10715, 10682, 10848, 10883, 10717
2074, 10677, 10843, 10878, 10712, 10683, 10849, 10884, 10718, 10847, 10881, 10882, 10715, 10851, 10885, 10886,
10719, 10686, 10852, 10887, 10721
2075, 10683, 10849, 10884, 10718, 10687, 10853, 10888, 10722, 10851, 10885, 10886, 10719, 10855, 10889, 10890,
10723, 10690, 10856, 10891, 10725
2076, 10687, 10853, 10888, 10722, 10691, 10857, 10892, 10726, 10855, 10889, 10890, 10723, 10859, 10893, 10894,
10727, 10694, 10860, 10895, 10729
2077, 10691, 10857, 10892, 10726, 10695, 10861, 10896, 10730, 10859, 10893, 10894, 10727, 10863, 10897, 10898,
10731, 10698, 10864, 10899, 10733
2078, 10695, 10861, 10896, 10730, 10699, 10865, 10900, 10734, 10863, 10897, 10898, 10731, 10867, 10901, 10902,
10735, 10702, 10868, 10903, 10737
2079, 10699, 10865, 10900, 10734, 10703, 10869, 10904, 10738, 10867, 10901, 10902, 10735, 10871, 10905, 10906,
10739, 10706, 10872, 10907, 10741
2080, 10703, 10869, 10904, 10738, 10707, 10873, 10908, 10742, 10871, 10905, 10906, 10739, 10875, 10909, 10910,
10743, 10710, 10876, 10911, 10745
2081, 10746, 10912, 10913, 10747, 10748, 10914, 10915, 10749, 10916, 10917, 10918, 10751, 10919, 10920, 10921,
10754, 10756, 10922, 10923, 10757
2082, 10748, 10914, 10915, 10749, 10758, 10924, 10925, 10759, 10919, 10920, 10921, 10754, 10926, 10927, 10928,
10761, 10763, 10929, 10930, 10764
2083, 10758, 10924, 10925, 10759, 10765, 10931, 10932, 10766, 10926, 10927, 10928, 10761, 10933, 10934, 10935,
10768, 10770, 10936, 10937, 10771
2084, 10765, 10931, 10932, 10766, 10772, 10938, 10939, 10773, 10933, 10934, 10935, 10768, 10940, 10941, 10942,
10775, 10777, 10943, 10944, 10778
2085, 10772, 10938, 10939, 10773, 10779, 10945, 10946, 10780, 10940, 10941, 10942, 10775, 10947, 10948, 10949,
10782, 10784, 10950, 10951, 10785
2086, 10779, 10945, 10946, 10780, 10786, 10952, 10953, 10787, 10947, 10948, 10949, 10782, 10954, 10955, 10956,
10789, 10791, 10957, 10958, 10792
2087, 10786, 10952, 10953, 10787, 10793, 10959, 10960, 10794, 10954, 10955, 10956, 10789, 10961, 10962, 10963,
10796, 10798, 10964, 10965, 10799
2088, 10793, 10959, 10960, 10794, 10800, 10966, 10967, 10801, 10961, 10962, 10963, 10796, 10968, 10969, 10970,
10803, 10805, 10971, 10972, 10806
2089, 10747, 10913, 10973, 10807, 10749, 10915, 10974, 10808, 10918, 10975, 10976, 10809, 10921, 10977, 10978,
10811, 10757, 10923, 10979, 10813
2090, 10749, 10915, 10974, 10808, 10759, 10925, 10980, 10814, 10921, 10977, 10978, 10811, 10928, 10981, 10982,
10815, 10764, 10930, 10983, 10817
2091, 10759, 10925, 10980, 10814, 10766, 10932, 10984, 10818, 10928, 10981, 10982, 10815, 10935, 10985, 10986,
10819, 10771, 10937, 10987, 10821
2092, 10766, 10932, 10984, 10818, 10773, 10939, 10988, 10822, 10935, 10985, 10986, 10819, 10942, 10989, 10990,
10823, 10778, 10944, 10991, 10825
2093, 10773, 10939, 10988, 10822, 10780, 10946, 10992, 10826, 10942, 10989, 10990, 10823, 10949, 10993, 10994,
10827, 10785, 10951, 10995, 10829
2094, 10780, 10946, 10992, 10826, 10787, 10953, 10996, 10830, 10949, 10993, 10994, 10827, 10956, 10997, 10998,
10831, 10792, 10958, 10999, 10833
2095, 10787, 10953, 10996, 10830, 10794, 10960, 11000, 10834, 10956, 10997, 10998, 10831, 10963, 11001, 11002,
10835, 10799, 10965, 11003, 10837
2096, 10794, 10960, 11000, 10834, 10801, 10967, 11004, 10838, 10963, 11001, 11002, 10835, 10970, 11005, 11006,
10839, 10806, 10972, 11007, 10841
2097, 10807, 10973, 11008, 10842, 10808, 10974, 11009, 10843, 10976, 11010, 11011, 10844, 10978, 11012, 11013,
10846, 10813, 10979, 11014, 10848
2098, 10808, 10974, 11009, 10843, 10814, 10980, 11015, 10849, 10978, 11012, 11013, 10846, 10982, 11016, 11017,
10850, 10817, 10983, 11018, 10852
2099, 10814, 10980, 11015, 10849, 10818, 10984, 11019, 10853, 10982, 11016, 11017, 10850, 10986, 11020, 11021,
10854, 10821, 10987, 11022, 10856
2100, 10818, 10984, 11019, 10853, 10822, 10988, 11023, 10857, 10986, 11020, 11021, 10854, 10990, 11024, 11025,
10858, 10825, 10991, 11026, 10860
2101, 10822, 10988, 11023, 10857, 10826, 10992, 11027, 10861, 10990, 11024, 11025, 10858, 10994, 11028, 11029,
10862, 10829, 10995, 11030, 10864
2102, 10826, 10992, 11027, 10861, 10830, 10996, 11031, 10865, 10994, 11028, 11029, 10862, 10998, 11032, 11033,
10866, 10833, 10999, 11034, 10868
2103, 10830, 10996, 11031, 10865, 10834, 11000, 11035, 10869, 10998, 11032, 11033, 10866, 11002, 11036, 11037,
10870, 10837, 11003, 11038, 10872
2104, 10834, 11000, 11035, 10869, 10838, 11004, 11039, 10873, 11002, 11036, 11037, 10870, 11006, 11040, 11041,
10874, 10841, 11007, 11042, 10876
2105, 10842, 11008, 11043, 10877, 10843, 11009, 11044, 10878, 11011, 11045, 11046, 10879, 11013, 11047, 11048,
10881, 10848, 11014, 11049, 10883
2106, 10843, 11009, 11044, 10878, 10849, 11015, 11050, 10884, 11013, 11047, 11048, 10881, 11017, 11051, 11052,
10885, 10852, 11018, 11053, 10887
2107, 10849, 11015, 11050, 10884, 10853, 11019, 11054, 10888, 11017, 11051, 11052, 10885, 11021, 11055, 11056,
10889, 10856, 11022, 11057, 10891
2108, 10853, 11019, 11054, 10888, 10857, 11023, 11058, 10892, 11021, 11055, 11056, 10889, 11025, 11059, 11060,
10893, 10860, 11026, 11061, 10895
2109, 10857, 11023, 11058, 10892, 10861, 11027, 11062, 10896, 11025, 11059, 11060, 10893, 11029, 11063, 11064,
10897, 10864, 11030, 11065, 10899
2110, 10861, 11027, 11062, 10896, 10865, 11031, 11066, 10900, 11029, 11063, 11064, 10897, 11033, 11067, 11068,
10901, 10868, 11034, 11069, 10903
2111, 10865, 11031, 11066, 10900, 10869, 11035, 11070, 10904, 11033, 11067, 11068, 10901, 11037, 11071, 11072,
10905, 10872, 11038, 11073, 10907
2112, 10869, 11035, 11070, 10904, 10873, 11039, 11074, 10908, 11037, 11071, 11072, 10905, 11041, 11075, 11076,
10909, 10876, 11042, 11077, 10911
2113, 10912, 11078, 11079, 10913, 10914, 11080, 11081, 10915, 11082, 11083, 11084, 10917, 11085, 11086, 11087,
10920, 10922, 11088, 11089, 10923
2114, 10914, 11080, 11081, 10915, 10924, 11090, 11091, 10925, 11085, 11086, 11087, 10920, 11092, 11093, 11094,
10927, 10929, 11095, 11096, 10930
2115, 10924, 11090, 11091, 10925, 10931, 11097, 11098, 10932, 11092, 11093, 11094, 10927, 11099, 11100, 11101,
10934, 10936, 11102, 11103, 10937
2116, 10931, 11097, 11098, 10932, 10938, 11104, 11105, 10939, 11099, 11100, 11101, 10934, 11106, 11107, 11108,
10941, 10943, 11109, 11110, 10944
2117, 10938, 11104, 11105, 10939, 10945, 11111, 11112, 10946, 11106, 11107, 11108, 10941, 11113, 11114, 11115,
10948, 10950, 11116, 11117, 10951
2118, 10945, 11111, 11112, 10946, 10952, 11118, 11119, 10953, 11113, 11114, 11115, 10948, 11120, 11121, 11122,
10955, 10957, 11123, 11124, 10958
2119, 10952, 11118, 11119, 10953, 10959, 11125, 11126, 10960, 11120, 11121, 11122, 10955, 11127, 11128, 11129,
10962, 10964, 11130, 11131, 10965
2120, 10959, 11125, 11126, 10960, 10966, 11132, 11133, 10967, 11127, 11128, 11129, 10962, 11134, 11135, 11136,
10969, 10971, 11137, 11138, 10972
2121, 10913, 11079, 11139, 10973, 10915, 11081, 11140, 10974, 11084, 11141, 11142, 10975, 11087, 11143, 11144,
10977, 10923, 11089, 11145, 10979
2122, 10915, 11081, 11140, 10974, 10925, 11091, 11146, 10980, 11087, 11143, 11144, 10977, 11094, 11147, 11148,
10981, 10930, 11096, 11149, 10983
2123, 10925, 11091, 11146, 10980, 10932, 11098, 11150, 10984, 11094, 11147, 11148, 10981, 11101, 11151, 11152,
10985, 10937, 11103, 11153, 10987
2124, 10932, 11098, 11150, 10984, 10939, 11105, 11154, 10988, 11101, 11151, 11152, 10985, 11108, 11155, 11156,
10989, 10944, 11110, 11157, 10991
2125, 10939, 11105, 11154, 10988, 10946, 11112, 11158, 10992, 11108, 11155, 11156, 10989, 11115, 11159, 11160,
10993, 10951, 11117, 11161, 10995
2126, 10946, 11112, 11158, 10992, 10953, 11119, 11162, 10996, 11115, 11159, 11160, 10993, 11122, 11163, 11164,
10997, 10958, 11124, 11165, 10999
2127, 10953, 11119, 11162, 10996, 10960, 11126, 11166, 11000, 11122, 11163, 11164, 10997, 11129, 11167, 11168,
11001, 10965, 11131, 11169, 11003
2128, 10960, 11126, 11166, 11000, 10967, 11133, 11170, 11004, 11129, 11167, 11168, 11001, 11136, 11171, 11172,
11005, 10972, 11138, 11173, 11007
2129, 10973, 11139, 11174, 11008, 10974, 11140, 11175, 11009, 11142, 11176, 11177, 11010, 11144, 11178, 11179,
11012, 10979, 11145, 11180, 11014
2130, 10974, 11140, 11175, 11009, 10980, 11146, 11181, 11015, 11144, 11178, 11179, 11012, 11148, 11182, 11183,
11016, 10983, 11149, 11184, 11018
2131, 10980, 11146, 11181, 11015, 10984, 11150, 11185, 11019, 11148, 11182, 11183, 11016, 11152, 11186, 11187,
11020, 10987, 11153, 11188, 11022
2132, 10984, 11150, 11185, 11019, 10988, 11154, 11189, 11023, 11152, 11186, 11187, 11020, 11156, 11190, 11191,
11024, 10991, 11157, 11192, 11026
2133, 10988, 11154, 11189, 11023, 10992, 11158, 11193, 11027, 11156, 11190, 11191, 11024, 11160, 11194, 11195,
11028, 10995, 11161, 11196, 11030
2134, 10992, 11158, 11193, 11027, 10996, 11162, 11197, 11031, 11160, 11194, 11195, 11028, 11164, 11198, 11199,
11032, 10999, 11165, 11200, 11034
2135, 10996, 11162, 11197, 11031, 11000, 11166, 11201, 11035, 11164, 11198, 11199, 11032, 11168, 11202, 11203,
11036, 11003, 11169, 11204, 11038
2136, 11000, 11166, 11201, 11035, 11004, 11170, 11205, 11039, 11168, 11202, 11203, 11036, 11172, 11206, 11207,
11040, 11007, 11173, 11208, 11042
2137, 11008, 11174, 11209, 11043, 11009, 11175, 11210, 11044, 11177, 11211, 11212, 11045, 11179, 11213, 11214,
11047, 11014, 11180, 11215, 11049
2138, 11009, 11175, 11210, 11044, 11015, 11181, 11216, 11050, 11179, 11213, 11214, 11047, 11183, 11217, 11218,
11051, 11018, 11184, 11219, 11053
2139, 11015, 11181, 11216, 11050, 11019, 11185, 11220, 11054, 11183, 11217, 11218, 11051, 11187, 11221, 11222,
11055, 11022, 11188, 11223, 11057
2140, 11019, 11185, 11220, 11054, 11023, 11189, 11224, 11058, 11187, 11221, 11222, 11055, 11191, 11225, 11226,
11059, 11026, 11192, 11227, 11061
2141, 11023, 11189, 11224, 11058, 11027, 11193, 11228, 11062, 11191, 11225, 11226, 11059, 11195, 11229, 11230,
11063, 11030, 11196, 11231, 11065
2142, 11027, 11193, 11228, 11062, 11031, 11197, 11232, 11066, 11195, 11229, 11230, 11063, 11199, 11233, 11234,
11067, 11034, 11200, 11235, 11069
2143, 11031, 11197, 11232, 11066, 11035, 11201, 11236, 11070, 11199, 11233, 11234, 11067, 11203, 11237, 11238,
11071, 11038, 11204, 11239, 11073
2144, 11035, 11201, 11236, 11070, 11039, 11205, 11240, 11074, 11203, 11237, 11238, 11071, 11207, 11241, 11242,
11075, 11042, 11208, 11243, 11077
2145, 11078, 11244, 11245, 11079, 11080, 11246, 11247, 11081, 11248, 11249, 11250, 11083, 11251, 11252, 11253,
11086, 11088, 11254, 11255, 11089
2146, 11080, 11246, 11247, 11081, 11090, 11256, 11257, 11091, 11251, 11252, 11253, 11086, 11258, 11259, 11260,
11093, 11095, 11261, 11262, 11096
2147, 11090, 11256, 11257, 11091, 11097, 11263, 11264, 11098, 11258, 11259, 11260, 11093, 11265, 11266, 11267,
11100, 11102, 11268, 11269, 11103
2148, 11097, 11263, 11264, 11098, 11104, 11270, 11271, 11105, 11265, 11266, 11267, 11100, 11272, 11273, 11274,
11107, 11109, 11275, 11276, 11110
2149, 11104, 11270, 11271, 11105, 11111, 11277, 11278, 11112, 11272, 11273, 11274, 11107, 11279, 11280, 11281,
11114, 11116, 11282, 11283, 11117
2150, 11111, 11277, 11278, 11112, 11118, 11284, 11285, 11119, 11279, 11280, 11281, 11114, 11286, 11287, 11288,
11121, 11123, 11289, 11290, 11124
2151, 11118, 11284, 11285, 11119, 11125, 11291, 11292, 11126, 11286, 11287, 11288, 11121, 11293, 11294, 11295,
11128, 11130, 11296, 11297, 11131
2152, 11125, 11291, 11292, 11126, 11132, 11298, 11299, 11133, 11293, 11294, 11295, 11128, 11300, 11301, 11302,
11135, 11137, 11303, 11304, 11138
2153, 11079, 11245, 11305, 11139, 11081, 11247, 11306, 11140, 11250, 11307, 11308, 11141, 11253, 11309, 11310,
11143, 11089, 11255, 11311, 11145
2154, 11081, 11247, 11306, 11140, 11091, 11257, 11312, 11146, 11253, 11309, 11310, 11143, 11260, 11313, 11314,
11147, 11096, 11262, 11315, 11149
2155, 11091, 11257, 11312, 11146, 11098, 11264, 11316, 11150, 11260, 11313, 11314, 11147, 11267, 11317, 11318,
11151, 11103, 11269, 11319, 11153
2156, 11098, 11264, 11316, 11150, 11105, 11271, 11320, 11154, 11267, 11317, 11318, 11151, 11274, 11321, 11322,
11155, 11110, 11276, 11323, 11157
2157, 11105, 11271, 11320, 11154, 11112, 11278, 11324, 11158, 11274, 11321, 11322, 11155, 11281, 11325, 11326,
11159, 11117, 11283, 11327, 11161
2158, 11112, 11278, 11324, 11158, 11119, 11285, 11328, 11162, 11281, 11325, 11326, 11159, 11288, 11329, 11330,
11163, 11124, 11290, 11331, 11165
2159, 11119, 11285, 11328, 11162, 11126, 11292, 11332, 11166, 11288, 11329, 11330, 11163, 11295, 11333, 11334,
11167, 11131, 11297, 11335, 11169
2160, 11126, 11292, 11332, 11166, 11133, 11299, 11336, 11170, 11295, 11333, 11334, 11167, 11302, 11337, 11338,
11171, 11138, 11304, 11339, 11173
2161, 11139, 11305, 11340, 11174, 11140, 11306, 11341, 11175, 11308, 11342, 11343, 11176, 11310, 11344, 11345,
11178, 11145, 11311, 11346, 11180
2162, 11140, 11306, 11341, 11175, 11146, 11312, 11347, 11181, 11310, 11344, 11345, 11178, 11314, 11348, 11349,
11182, 11149, 11315, 11350, 11184
2163, 11146, 11312, 11347, 11181, 11150, 11316, 11351, 11185, 11314, 11348, 11349, 11182, 11318, 11352, 11353,
11186, 11153, 11319, 11354, 11188
2164, 11150, 11316, 11351, 11185, 11154, 11320, 11355, 11189, 11318, 11352, 11353, 11186, 11322, 11356, 11357,
11190, 11157, 11323, 11358, 11192
2165, 11154, 11320, 11355, 11189, 11158, 11324, 11359, 11193, 11322, 11356, 11357, 11190, 11326, 11360, 11361,
11194, 11161, 11327, 11362, 11196
2166, 11158, 11324, 11359, 11193, 11162, 11328, 11363, 11197, 11326, 11360, 11361, 11194, 11330, 11364, 11365,
11198, 11165, 11331, 11366, 11200
2167, 11162, 11328, 11363, 11197, 11166, 11332, 11367, 11201, 11330, 11364, 11365, 11198, 11334, 11368, 11369,
11202, 11169, 11335, 11370, 11204
2168, 11166, 11332, 11367, 11201, 11170, 11336, 11371, 11205, 11334, 11368, 11369, 11202, 11338, 11372, 11373,
11206, 11173, 11339, 11374, 11208
2169, 11174, 11340, 11375, 11209, 11175, 11341, 11376, 11210, 11343, 11377, 11378, 11211, 11345, 11379, 11380,
11213, 11180, 11346, 11381, 11215
2170, 11175, 11341, 11376, 11210, 11181, 11347, 11382, 11216, 11345, 11379, 11380, 11213, 11349, 11383, 11384,
11217, 11184, 11350, 11385, 11219
2171, 11181, 11347, 11382, 11216, 11185, 11351, 11386, 11220, 11349, 11383, 11384, 11217, 11353, 11387, 11388,
11221, 11188, 11354, 11389, 11223
2172, 11185, 11351, 11386, 11220, 11189, 11355, 11390, 11224, 11353, 11387, 11388, 11221, 11357, 11391, 11392,
11225, 11192, 11358, 11393, 11227
2173, 11189, 11355, 11390, 11224, 11193, 11359, 11394, 11228, 11357, 11391, 11392, 11225, 11361, 11395, 11396,
11229, 11196, 11362, 11397, 11231
2174, 11193, 11359, 11394, 11228, 11197, 11363, 11398, 11232, 11361, 11395, 11396, 11229, 11365, 11399, 11400,
11233, 11200, 11366, 11401, 11235
2175, 11197, 11363, 11398, 11232, 11201, 11367, 11402, 11236, 11365, 11399, 11400, 11233, 11369, 11403, 11404,
11237, 11204, 11370, 11405, 11239
2176, 11201, 11367, 11402, 11236, 11205, 11371, 11406, 11240, 11369, 11403, 11404, 11237, 11373, 11407, 11408,
11241, 11208, 11374, 11409, 11243
*ELSET, ELSET=SHELL
1, 2, 3, 4, 5, 6, 7, 8, 9, 10, 11, 12, 13, 14, 15, 16,
17, 18, 19, 20, 21, 22, 23, 24, 25, 26, 27, 28, 29, 30, 31, 32,
33, 34, 35, 36, 37, 38, 39, 40, 41, 42, 43, 44, 45, 46, 47, 48,
49, 50, 51, 52, 53, 54, 55, 56, 57, 58, 59, 60, 61, 62, 63, 64,
65, 66, 67, 68, 69, 70, 71, 72, 73, 74, 75, 76, 77, 78, 79, 80,
81, 82, 83, 84, 85, 86, 87, 88, 89, 90, 91, 92, 93, 94, 95, 96,
97, 98, 99, 100, 101, 102, 103, 104, 105, 106, 107, 108, 109, 110, 111, 112,
113, 114, 115, 116, 117, 118, 119, 120, 121, 122, 123, 124, 125, 126, 127, 128,
129, 130, 131, 132, 133, 134, 135, 136, 137, 138, 139, 140, 141, 142, 143, 144,
145, 146, 147, 148, 149, 150, 151, 152, 153, 154, 155, 156, 157, 158, 159, 160,
161, 162, 163, 164, 165, 166, 167, 168, 169, 170, 171, 172, 173, 174, 175, 176,
177, 178, 179, 180, 181, 182, 183, 184, 185, 186, 187, 188, 189, 190, 191, 192,
193, 194, 195, 196, 197, 198, 199, 200, 201, 202, 203, 204, 205, 206, 207, 208,
209, 210, 211, 212, 213, 214, 215, 216, 217, 218, 219, 220, 221, 222, 223, 224,
225, 226, 227, 228, 229, 230, 231, 232, 233, 234, 235, 236, 237, 238, 239, 240,
241, 242, 243, 244, 245, 246, 247, 248, 249, 250, 251, 252, 253, 254, 255, 256,
257, 258, 259, 260, 261, 262, 263, 264, 265, 266, 267, 268, 269, 270, 271, 272,
273, 274, 275, 276, 277, 278, 279, 280, 281, 282, 283, 284, 285, 286, 287, 288,
289, 290, 291, 292, 293, 294, 295, 296, 297, 298, 299, 300, 301, 302, 303, 304,
305, 306, 307, 308, 309, 310, 311, 312, 313, 314, 315, 316, 317, 318, 319, 320,
321, 322, 323, 324, 325, 326, 327, 328, 329, 330, 331, 332, 333, 334, 335, 336,
337, 338, 339, 340, 341, 342, 343, 344, 345, 346, 347, 348, 349, 350, 351, 352,
353, 354, 355, 356, 357, 358, 359, 360, 361, 362, 363, 364, 365, 366, 367, 368,
369, 370, 371, 372, 373, 374, 375, 376, 377, 378, 379, 380, 381, 382, 383, 384,
385, 386, 387, 388, 389, 390, 391, 392, 393, 394, 395, 396, 397, 398, 399, 400,
401, 402, 403, 404, 405, 406, 407, 408, 409, 410, 411, 412, 413, 414, 415, 416,
417, 418, 419, 420, 421, 422, 423, 424, 425, 426, 427, 428, 429, 430, 431, 432,
433, 434, 435, 436, 437, 438, 439, 440, 441, 442, 443, 444, 445, 446, 447, 448,
449, 450, 451, 452, 453, 454, 455, 456, 457, 458, 459, 460, 461, 462, 463, 464,
465, 466, 467, 468, 469, 470, 471, 472, 473, 474, 475, 476, 477, 478, 479, 480,
481, 482, 483, 484, 485, 486, 487, 488, 489, 490, 491, 492, 493, 494, 495, 496,
497, 498, 499, 500, 501, 502, 503, 504, 505, 506, 507, 508, 509, 510, 511, 512,
513, 514, 515, 516, 517, 518, 519, 520, 521, 522, 523, 524, 525, 526, 527, 528,
529, 530, 531, 532, 533, 534, 535, 536, 537, 538, 539, 540, 541, 542, 543, 544,
545, 546, 547, 548, 549, 550, 551, 552, 553, 554, 555, 556, 557, 558, 559, 560,
561, 562, 563, 564, 565, 566, 567, 568, 569, 570, 571, 572, 573, 574, 575, 576,
577, 578, 579, 580, 581, 582, 583, 584, 585, 586, 587, 588, 589, 590, 591, 592,
593, 594, 595, 596, 597, 598, 599, 600, 601, 602, 603, 604, 605, 606, 607, 608,
609, 610, 611, 612, 613, 614, 615, 616, 617, 618, 619, 620, 621, 622, 623, 624,
625, 626, 627, 628, 629, 630, 631, 632, 633, 634, 635, 636, 637, 638, 639, 640,
641, 642, 643, 644, 645, 646, 647, 648, 649, 650, 651, 652, 653, 654, 655, 656,
657, 658, 659, 660, 661, 662, 663, 664, 665, 666, 667, 668, 669, 670, 671, 672,
673, 674, 675, 676, 677, 678, 679, 680, 681, 682, 683, 684, 685, 686, 687, 688,
689, 690, 691, 692, 693, 694, 695, 696, 697, 698, 699, 700, 701, 702, 703, 704,
705, 706, 707, 708, 709, 710, 711, 712, 713, 714, 715, 716, 717, 718, 719, 720,
721, 722, 723, 724, 725, 726, 727, 728, 729, 730, 731, 732, 733, 734, 735, 736,
737, 738, 739, 740, 741, 742, 743, 744, 745, 746, 747, 748, 749, 750, 751, 752,
753, 754, 755, 756, 757, 758, 759, 760, 761, 762, 763, 764, 765, 766, 767, 768,
769, 770, 771, 772, 773, 774, 775, 776, 777, 778, 779, 780, 781, 782, 783, 784,
785, 786, 787, 788, 789, 790, 791, 792, 793, 794, 795, 796, 797, 798, 799, 800,
801, 802, 803, 804, 805, 806, 807, 808, 809, 810, 811, 812, 813, 814, 815, 816,
817, 818, 819, 820, 821, 822, 823, 824, 825, 826, 827, 828, 829, 830, 831, 832,
833, 834, 835, 836, 837, 838, 839, 840, 841, 842, 843, 844, 845, 846, 847, 848,
849, 850, 851, 852, 853, 854, 855, 856, 857, 858, 859, 860, 861, 862, 863, 864,
865, 866, 867, 868, 869, 870, 871, 872, 873, 874, 875, 876, 877, 878, 879, 880,
881, 882, 883, 884, 885, 886, 887, 888, 889, 890, 891, 892, 893, 894, 895, 896,
897, 898, 899, 900, 901, 902, 903, 904, 905, 906, 907, 908, 909, 910, 911, 912,
913, 914, 915, 916, 917, 918, 919, 920, 921, 922, 923, 924, 925, 926, 927, 928,
929, 930, 931, 932, 933, 934, 935, 936, 937, 938, 939, 940, 941, 942, 943, 944,
945, 946, 947, 948, 949, 950, 951, 952, 953, 954, 955, 956, 957, 958, 959, 960,
*ELSET, ELSET=HEAD
961, 962, 963, 964, 965, 966, 967, 968, 969, 970, 971, 972, 973, 974, 975, 976,
977, 978, 979, 980, 981, 982, 983, 984, 985, 986, 987, 988, 989, 990, 991, 992,
993, 994, 995, 996, 997, 998, 999, 1000, 1001, 1002, 1003, 1004, 1005, 1006, 1007, 1008,
1009, 1010, 1011, 1012, 1013, 1014, 1015, 1016, 1017, 1018, 1019, 1020, 1021, 1022, 1023, 1024,
1025, 1026, 1027, 1028, 1029, 1030, 1031, 1032, 1033, 1034, 1035, 1036, 1037, 1038, 1039, 1040,
1041, 1042, 1043, 1044, 1045, 1046, 1047, 1048, 1049, 1050, 1051, 1052, 1053, 1054, 1055, 1056,
1057, 1058, 1059, 1060, 1061, 1062, 1063, 1064, 1065, 1066, 1067, 1068, 1069, 1070, 1071, 1072,
1073, 1074, 1075, 1076, 1077, 1078, 1079, 1080, 1081, 1082, 1083, 1084, 1085, 1086, 1087, 1088,
1089, 1090, 1091, 1092, 1093, 1094, 1095, 1096, 1097, 1098, 1099, 1100, 1101, 1102, 1103, 1104,
1105, 1106, 1107, 1108, 1109, 1110, 1111, 1112, 1113, 1114, 1115, 1116, 1117, 1118, 1119, 1120,
1121, 1122, 1123, 1124, 1125, 1126, 1127, 1128, 1129, 1130, 1131, 1132, 1133, 1134, 1135, 1136,
1137, 1138, 1139, 1140, 1141, 1142, 1143, 1144, 1145, 1146, 1147, 1148, 1149, 1150, 1151, 1152,
1153, 1154, 1155, 1156, 1157, 1158, 1159, 1160, 1161, 1162, 1163, 1164, 1165, 1166, 1167, 1168,
1169, 1170, 1171, 1172, 1173, 1174, 1175, 1176, 1177, 1178, 1179, 1180, 1181, 1182, 1183, 1184,
1185, 1186, 1187, 1188, 1189, 1190, 1191, 1192, 1193, 1194, 1195, 1196, 1197, 1198, 1199, 1200,
1201, 1202, 1203, 1204, 1205, 1206, 1207, 1208, 1209, 1210, 1211, 1212, 1213, 1214, 1215, 1216,
1217, 1218, 1219, 1220, 1221, 1222, 1223, 1224, 1225, 1226, 1227, 1228, 1229, 1230, 1231, 1232,
1233, 1234, 1235, 1236, 1237, 1238, 1239, 1240, 1241, 1242, 1243, 1244, 1245, 1246, 1247, 1248,
1249, 1250, 1251, 1252, 1253, 1254, 1255, 1256, 1257, 1258, 1259, 1260, 1261, 1262, 1263, 1264,
1265, 1266, 1267, 1268, 1269, 1270, 1271, 1272, 1273, 1274, 1275, 1276, 1277, 1278, 1279, 1280,
1281, 1282, 1283, 1284, 1285, 1286, 1287, 1288, 1289, 1290, 1291, 1292, 1293, 1294, 1295, 1296,
1297, 1298, 1299, 1300, 1301, 1302, 1303, 1304, 1305, 1306, 1307, 1308, 1309, 1310, 1311, 1312,
1313, 1314, 1315, 1316, 1317, 1318, 1319, 1320, 1321, 1322, 1323, 1324, 1325, 1326, 1327, 1328,
1329, 1330, 1331, 1332, 1333, 1334, 1335, 1336, 1337, 1338, 1339, 1340, 1341, 1342, 1343, 1344,
1345, 1346, 1347, 1348, 1349, 1350, 1351, 1352, 1353, 1354, 1355, 1356, 1357, 1358, 1359, 1360,
1361, 1362, 1363, 1364, 1365, 1366, 1367, 1368, 1369, 1370, 1371, 1372, 1373, 1374, 1375, 1376,
1377, 1378, 1379, 1380, 1381, 1382, 1383, 1384, 1385, 1386, 1387, 1388, 1389, 1390, 1391, 1392,
1393, 1394, 1395, 1396, 1397, 1398, 1399, 1400, 1401, 1402, 1403, 1404, 1405, 1406, 1407, 1408,
1409, 1410, 1411, 1412, 1413, 1414, 1415, 1416, 1417, 1418, 1419, 1420, 1421, 1422, 1423, 1424,
1425, 1426, 1427, 1428, 1429, 1430, 1431, 1432, 1433, 1434, 1435, 1436, 1437, 1438, 1439, 1440,
1441, 1442, 1443, 1444, 1445, 1446, 1447, 1448, 1449, 1450, 1451, 1452, 1453, 1454, 1455, 1456,
1457, 1458, 1459, 1460, 1461, 1462, 1463, 1464, 1465, 1466, 1467, 1468, 1469, 1470, 1471, 1472,
1473, 1474, 1475, 1476, 1477, 1478, 1479, 1480, 1481, 1482, 1483, 1484, 1485, 1486, 1487, 1488,
1489, 1490, 1491, 1492, 1493, 1494, 1495, 1496, 1497, 1498, 1499, 1500, 1501, 1502, 1503, 1504,
1505, 1506, 1507, 1508, 1509, 1510, 1511, 1512, 1513, 1514, 1515, 1516, 1517, 1518, 1519, 1520,
1521, 1522, 1523, 1524, 1525, 1526, 1527, 1528, 1529, 1530, 1531, 1532, 1533, 1534, 1535, 1536,
1537, 1538, 1539, 1540, 1541, 1542, 1543, 1544, 1545, 1546, 1547, 1548, 1549, 1550, 1551, 1552,
1553, 1554, 1555, 1556, 1557, 1558, 1559, 1560, 1561, 1562, 1563, 1564, 1565, 1566, 1567, 1568,
1569, 1570, 1571, 1572, 1573, 1574, 1575, 1576, 1577, 1578, 1579, 1580, 1581, 1582, 1583, 1584,
1585, 1586, 1587, 1588, 1589, 1590, 1591, 1592, 1593, 1594, 1595, 1596, 1597, 1598, 1599, 1600,
1601, 1602, 1603, 1604, 1605, 1606, 1607, 1608, 1609, 1610, 1611, 1612, 1613, 1614, 1615, 1616,
1617, 1618, 1619, 1620, 1621, 1622, 1623, 1624, 1625, 1626, 1627, 1628, 1629, 1630, 1631, 1632,
1633, 1634, 1635, 1636, 1637, 1638, 1639, 1640, 1641, 1642, 1643, 1644, 1645, 1646, 1647, 1648,
1649, 1650, 1651, 1652, 1653, 1654, 1655, 1656, 1657, 1658, 1659, 1660, 1661, 1662, 1663, 1664,
1665, 1666, 1667, 1668, 1669, 1670, 1671, 1672, 1673, 1674, 1675, 1676, 1677, 1678, 1679, 1680,
1681, 1682, 1683, 1684, 1685, 1686, 1687, 1688, 1689, 1690, 1691, 1692, 1693, 1694, 1695, 1696,
1697, 1698, 1699, 1700, 1701, 1702, 1703, 1704, 1705, 1706, 1707, 1708, 1709, 1710, 1711, 1712,
1713, 1714, 1715, 1716, 1717, 1718, 1719, 1720, 1721, 1722, 1723, 1724, 1725, 1726, 1727, 1728,
1729, 1730, 1731, 1732, 1733, 1734, 1735, 1736, 1737, 1738, 1739, 1740, 1741, 1742, 1743, 1744,
1745, 1746, 1747, 1748, 1749, 1750, 1751, 1752, 1753, 1754, 1755, 1756, 1757, 1758, 1759, 1760,
1761, 1762, 1763, 1764, 1765, 1766, 1767, 1768, 1769, 1770, 1771, 1772, 1773, 1774, 1775, 1776,
1777, 1778, 1779, 1780, 1781, 1782, 1783, 1784, 1785, 1786, 1787, 1788, 1789, 1790, 1791, 1792,
*ELSET, ELSET=NOZZLE
1793, 1794, 1795, 1796, 1797, 1798, 1799, 1800, 1801, 1802, 1803, 1804, 1805, 1806, 1807, 1808,
1809, 1810, 1811, 1812, 1813, 1814, 1815, 1816, 1817, 1818, 1819, 1820, 1821, 1822, 1823, 1824,
1825, 1826, 1827, 1828, 1829, 1830, 1831, 1832, 1833, 1834, 1835, 1836, 1837, 1838, 1839, 1840,
1841, 1842, 1843, 1844, 1845, 1846, 1847, 1848, 1849, 1850, 1851, 1852, 1853, 1854, 1855, 1856,
1857, 1858, 1859, 1860, 1861, 1862, 1863, 1864, 1865, 1866, 1867, 1868, 1869, 1870, 1871, 1872,
1873, 1874, 1875, 1876, 1877, 1878, 1879, 1880, 1881, 1882, 1883, 1884, 1885, 1886, 1887, 1888,
1889, 1890, 1891, 1892, 1893, 1894, 1895, 1896, 1897, 1898, 1899, 1900, 1901, 1902, 1903, 1904,
1905, 1906, 1907, 1908, 1909, 1910, 1911, 1912, 1913, 1914, 1915, 1916, 1917, 1918, 1919, 1920,
1921, 1922, 1923, 1924, 1925, 1926, 1927, 1928, 1929, 1930, 1931, 1932, 1933, 1934, 1935, 1936,
1937, 1938, 1939, 1940, 1941, 1942, 1943, 1944, 1945, 1946, 1947, 1948, 1949, 1950, 1951, 1952,
1953, 1954, 1955, 1956, 1957, 1958, 1959, 1960, 1961, 1962, 1963, 1964, 1965, 1966, 1967, 1968,
1969, 1970, 1971, 1972, 1973, 1974, 1975, 1976, 1977, 1978, 1979, 1980, 1981, 1982, 1983, 1984,
1985, 1986, 1987, 1988, 1989, 1990, 1991, 1992, 1993, 1994, 1995, 1996, 1997, 1998, 1999, 2000,
2001, 2002, 2003, 2004, 2005, 2006, 2007, 2008, 2009, 2010, 2011, 2012, 2013, 2014, 2015, 2016,
2017, 2018, 2019, 2020, 2021, 2022, 2023, 2024, 2025, 2026, 2027, 2028, 2029, 2030, 2031, 2032,
2033, 2034, 2035, 2036, 2037, 2038, 2039, 2040, 2041, 2042, 2043, 2044, 2045, 2046, 2047, 2048,
2049, 2050, 2051, 2052, 2053, 2054, 2055, 2056, 2057, 2058, 2059, 2060, 2061, 2062, 2063, 2064,
2065, 2066, 2067, 2068, 2069, 2070, 2071, 2072, 2073, 2074, 2075, 2076, 2077, 2078, 2079, 2080,
2081, 2082, 2083, 2084, 2085, 2086, 2087, 2088, 2089, 2090, 2091, 2092, 2093, 2094, 2095, 2096,
2097, 2098, 2099, 2100, 2101, 2102, 2103, 2104, 2105, 2106, 2107, 2108, 2109, 2110, 2111, 2112,
2113, 2114, 2115, 2116, 2117, 2118, 2119, 2120, 2121, 2122, 2123, 2124, 2125, 2126, 2127, 2128,
2129, 2130, 2131, 2132, 2133, 2134, 2135, 2136, 2137, 2138, 2139, 2140, 2141, 2142, 2143, 2144,
2145, 2146, 2147, 2148, 2149, 2150, 2151, 2152, 2153, 2154, 2155, 2156, 2157, 2158, 2159, 2160,
2161, 2162, 2163, 2164, 2165, 2166, 2167, 2168, 2169, 2170, 2171, 2172, 2173, 2174, 2175, 2176,
*NSET, NSET=SYM_Z
1, 4, 5, 8, 12, 16, 17, 20, 21, 24, 28, 29, 32, 33, 36, 40,
41, 44, 45, 48, 52, 53, 56, 57, 60, 64, 65, 68, 69, 72, 76, 77,
80, 81, 84, 88, 89, 92, 93, 96, 100, 101, 104, 106, 108, 111, 114, 116,
118, 121, 123, 125, 128, 130, 132, 135, 137, 139, 142, 144, 146, 149, 151, 153,
156, 158, 160, 163, 165, 167, 169, 172, 175, 177, 179, 182, 184, 186, 189, 191,
193, 196, 198, 200, 203, 205, 207, 210, 212, 214, 217, 219, 221, 224, 226, 228,
230, 233, 236, 238, 240, 243, 245, 247, 250, 252, 254, 257, 259, 261, 264, 266,
268, 271, 273, 275, 278, 280, 282, 285, 287,
*NSET, NSET=SYM_Y
1, 2, 3, 4, 9, 10, 11, 12, 105, 106, 109, 110, 111, 166, 167, 170,
171, 172, 227, 228, 231, 232, 233, 288, 289, 292, 293, 294, 349, 351, 352, 384,
386, 387, 419, 421, 422, 454, 455, 458, 459, 460, 515, 517, 518, 550, 552, 553,
585, 587, 588, 620, 621, 624, 625, 626, 681, 683, 684, 716, 718, 719, 751, 753,
754, 786, 787, 790, 791, 792, 847, 849, 850, 882, 884, 885, 917, 919, 920, 952,
953, 956, 957, 958, 1013, 1015, 1016, 1048, 1050, 1051, 1083, 1085, 1086, 1118, 1119, 1122,
1123, 1124, 1179, 1181, 1182, 1214, 1216, 1217, 1249, 1251, 1252, 1284, 1285, 1288, 1289, 1290,
1345, 1347, 1348, 1380, 1382, 1383, 1415, 1417, 1418, 1450, 1451, 1454, 1455, 1456, 1511, 1513,
1514, 1546, 1548, 1549, 1581, 1583, 1584, 1616, 1617, 1620, 1621, 1622, 1677, 1679, 1680, 1712,
1714, 1715, 1747, 1749, 1750, 1782, 1783, 1786, 1787, 1788, 1843, 1845, 1846, 1878, 1880, 1881,
1913, 1915, 1916, 1948, 1949, 1952, 1953, 1954, 2009, 2011, 2012, 2044, 2046, 2047, 2079, 2081,
2082, 2114, 2115, 2118, 2119, 2120, 2175, 2177, 2178, 2210, 2212, 2213, 2245, 2247, 2248, 2280,
2281, 2284, 2285, 2286, 2341, 2343, 2344, 2376, 2378, 2379, 2411, 2413, 2414, 2446, 2447, 2450,
2451, 2452, 2507, 2509, 2510, 2542, 2544, 2545, 2577, 2579, 2580, 2612, 2613, 2616, 2617, 2618,
2673, 2675, 2676, 2708, 2710, 2711, 2743, 2745, 2746, 2778, 2779, 2782, 2783, 2784, 2839, 2841,
2842, 2874, 2876, 2877, 2909, 2911, 2912, 2944, 2945, 2948, 2949, 2950, 3005, 3007, 3008, 3040,
3042, 3043, 3075, 3077, 3078, 3110, 3111, 3114, 3115, 3116, 3171, 3173, 3174, 3206, 3208, 3209,
3241, 3243, 3244, 3276, 3277, 3280, 3281, 3282, 3337, 3339, 3340, 3372, 3374, 3375, 3407, 3409,
3410, 3442, 3443, 3446, 3447, 3448, 3503, 3505, 3506, 3538, 3540, 3541, 3573, 3575, 3576, 3608,
3609, 3612, 3613, 3614, 3669, 3671, 3672, 3704, 3706, 3707, 3739, 3741, 3742, 3774, 3775, 3778,
3779, 3780, 3835, 3837, 3838, 3870, 3872, 3873, 3905, 3907, 3908, 3940, 3941, 3944, 3945, 3946,
4001, 4003, 4004, 4036, 4038, 4039, 4071, 4073, 4074, 4106, 4107, 4110, 4111, 4112, 4167, 4169,
4170, 4202, 4204, 4205, 4237, 4239, 4240, 4272, 4273, 4276, 4277, 4278, 4333, 4335, 4336, 4368,
4370, 4371, 4403, 4405, 4406, 4438, 4439, 4442, 4443, 4444, 4499, 4501, 4502, 4534, 4536, 4537,
4569, 4571, 4572, 4604, 4605, 4608, 4609, 4610, 4665, 4667, 4668, 4700, 4702, 4703, 4735, 4737,
4738, 4770, 4771, 4774, 4775, 4776, 4831, 4833, 4834, 4866, 4868, 4869, 4901, 4903, 4904, 4936,
4937, 4940, 4941, 4942, 4997, 4999, 5000, 5032, 5034, 5035, 5067, 5069, 5070, 5102, 5103, 5106,
5107, 5108, 5163, 5165, 5166, 5198, 5200, 5201, 5233, 5235, 5236, 5268, 5269, 5272, 5273, 5274,
5329, 5331, 5332, 5364, 5366, 5367, 5399, 5401, 5402, 5434, 5435, 5438, 5439, 5440, 5495, 5497,
5498, 5530, 5532, 5533, 5565, 5567, 5568, 5600, 5601, 5604, 5605, 5606, 5661, 5663, 5664, 5696,
5698, 5699, 5731, 5733, 5734, 5766, 5767, 5770, 5771, 5772, 5827, 5829, 5830, 5862, 5864, 5865,
5897, 5899, 5900, 5932, 5933, 5936, 5937, 5938, 5993, 5995, 5996, 6028, 6030, 6031, 6063, 6065,
6066, 6098, 6099, 6102, 6103, 6104, 6159, 6161, 6162, 6194, 6196, 6197, 6229, 6231, 6232, 6264,
6265, 6268, 6269, 6270, 6325, 6327, 6328, 6360, 6362, 6363, 6395, 6397, 6398, 6430, 6431, 6434,
6435, 6436, 6491, 6493, 6494, 6526, 6528, 6529, 6561, 6563, 6564, 6596, 6597, 6600, 6601, 6602,
6657, 6659, 6660, 6692, 6694, 6695, 6727, 6729, 6730, 6762, 6763, 6766, 6767, 6768, 6823, 6825,
6826, 6858, 6860, 6861, 6893, 6895, 6896, 6928, 6929, 6932, 6933, 6934, 6989, 6991, 6992, 7024,
7026, 7027, 7059, 7061, 7062, 7094, 7095, 7098, 7099, 7100, 7155, 7157, 7158, 7190, 7192, 7193,
7225, 7227, 7228, 7260, 7261, 7264, 7265, 7266, 7321, 7323, 7324, 7356, 7358, 7359, 7391, 7393,
7394, 7426, 7427, 7430, 7431, 7432, 7487, 7489, 7490, 7522, 7524, 7525, 7557, 7559, 7560, 7592,
7593, 7596, 7597, 7598, 7653, 7655, 7656, 7688, 7690, 7691, 7723, 7725, 7726, 7758, 7759, 7762,
7763, 7764, 7819, 7821, 7822, 7854, 7856, 7857, 7889, 7891, 7892, 7924, 7925, 7928, 7929, 7930,
7985, 7987, 7988, 8020, 8022, 8023, 8055, 8057, 8058, 8090, 8091, 8094, 8095, 8096, 8151, 8153,
8154, 8186, 8188, 8189, 8221, 8223, 8224, 8256, 8257, 8260, 8261, 8262, 8317, 8319, 8320, 8352,
8354, 8355, 8387, 8389, 8390, 8422, 8423, 8426, 8427, 8428, 8483, 8485, 8486, 8518, 8520, 8521,
8553, 8555, 8556, 8588, 8589, 8592, 8593, 8594, 8649, 8651, 8652, 8684, 8686, 8687, 8719, 8721,
8722, 8754, 8755, 8758, 8759, 8760, 8815, 8817, 8818, 8850, 8852, 8853, 8885, 8887, 8888, 8920,
8921, 8924, 8925, 8926, 8981, 8983, 8984, 9016, 9018, 9019, 9051, 9053, 9054, 9086, 9087, 9090,
9091, 9092, 9147, 9149, 9150, 9182, 9184, 9185, 9217, 9219, 9220, 9252, 9253, 9256, 9257, 9258,
9313, 9315, 9316, 9348, 9350, 9351, 9383, 9385, 9386, 9418, 9419, 9422, 9423, 9424, 9479, 9481,
9482, 9514, 9516, 9517, 9549, 9551, 9552, 9584, 9585, 9588, 9589, 9590, 9645, 9647, 9648, 9680,
9682, 9683, 9715, 9717, 9718, 9750, 9751, 9754, 9755, 9756, 9811, 9813, 9814, 9846, 9848, 9849,
9881, 9883, 9884, 9916, 9917, 9920, 9921, 9922, 9977, 9979, 9980, 10012, 10014, 10015, 10047, 10049,
10050, 10082, 10083, 10086, 10087, 10088, 10143, 10145, 10146, 10178, 10180, 10181, 10213, 10215, 10216, 10248,
10249, 10252, 10253, 10254, 10309, 10311, 10312, 10344, 10346, 10347, 10379, 10381, 10382, 10414, 10415, 10418,
10419, 10420, 10475, 10477, 10478, 10510, 10512, 10513, 10545, 10547, 10548, 10580, 10581, 10584, 10585, 10586,
10641, 10643, 10644, 10676, 10678, 10679, 10711, 10713, 10714, 10746, 10747, 10750, 10751, 10752, 10807, 10809,
10810, 10842, 10844, 10845, 10877, 10879, 10880, 10912, 10913, 10916, 10917, 10918, 10973, 10975, 10976, 11008,
11010, 11011, 11043, 11045, 11046, 11078, 11079, 11082, 11083, 11084, 11139, 11141, 11142, 11174, 11176, 11177,
11209, 11211, 11212, 11244, 11245, 11248, 11249, 11250, 11305, 11307, 11308, 11340, 11342, 11343, 11375, 11377,
11378,
*NSET, NSET=SYM_X
93, 94, 95, 96, 97, 98, 99, 100, 159, 160, 161, 162, 163, 220, 221, 222,
223, 224, 281, 282, 283, 284, 285, 342, 343, 344, 345, 346, 380, 381, 382, 415,
416, 417, 450, 451, 452, 508, 509, 510, 511, 512, 546, 547, 548, 581, 582, 583,
616, 617, 618, 674, 675, 676, 677, 678, 712, 713, 714, 747, 748, 749, 782, 783,
784, 840, 841, 842, 843, 844, 878, 879, 880, 913, 914, 915, 948, 949, 950, 1006,
1007, 1008, 1009, 1010, 1044, 1045, 1046, 1079, 1080, 1081, 1114, 1115, 1116, 1172, 1173, 1174,
1175, 1176, 1210, 1211, 1212, 1245, 1246, 1247, 1280, 1281, 1282, 1338, 1339, 1340, 1341, 1342,
1376, 1377, 1378, 1411, 1412, 1413, 1446, 1447, 1448, 1504, 1505, 1506, 1507, 1508, 1542, 1543,
1544, 1577, 1578, 1579, 1612, 1613, 1614, 1670, 1671, 1672, 1673, 1674, 1708, 1709, 1710, 1743,
1744, 1745, 1778, 1779, 1780, 1836, 1837, 1838, 1839, 1840, 1874, 1875, 1876, 1909, 1910, 1911,
1944, 1945, 1946, 2002, 2003, 2004, 2005, 2006, 2040, 2041, 2042, 2075, 2076, 2077, 2110, 2111,
2112, 2168, 2169, 2170, 2171, 2172, 2206, 2207, 2208, 2241, 2242, 2243, 2276, 2277, 2278, 2334,
2335, 2336, 2337, 2338, 2372, 2373, 2374, 2407, 2408, 2409, 2442, 2443, 2444, 2500, 2501, 2502,
2503, 2504, 2538, 2539, 2540, 2573, 2574, 2575, 2608, 2609, 2610, 2666, 2667, 2668, 2669, 2670,
2704, 2705, 2706, 2739, 2740, 2741, 2774, 2775, 2776, 2832, 2833, 2834, 2835, 2836, 2870, 2871,
2872, 2905, 2906, 2907, 2940, 2941, 2942, 2998, 2999, 3000, 3001, 3002, 3036, 3037, 3038, 3071,
3072, 3073, 3106, 3107, 3108, 3164, 3165, 3166, 3167, 3168, 3202, 3203, 3204, 3237, 3238, 3239,
3272, 3273, 3274, 3330, 3331, 3332, 3333, 3334, 3368, 3369, 3370, 3403, 3404, 3405, 3438, 3439,
3440, 3496, 3497, 3498, 3499, 3500, 3534, 3535, 3536, 3569, 3570, 3571, 3604, 3605, 3606, 3662,
3663, 3664, 3665, 3666, 3700, 3701, 3702, 3735, 3736, 3737, 3770, 3771, 3772, 3828, 3829, 3830,
3831, 3832, 3866, 3867, 3868, 3901, 3902, 3903, 3936, 3937, 3938, 3994, 3995, 3996, 3997, 3998,
4032, 4033, 4034, 4067, 4068, 4069, 4102, 4103, 4104, 4160, 4161, 4162, 4163, 4164, 4198, 4199,
4200, 4233, 4234, 4235, 4268, 4269, 4270, 4326, 4327, 4328, 4329, 4330, 4364, 4365, 4366, 4399,
4400, 4401, 4434, 4435, 4436, 4492, 4493, 4494, 4495, 4496, 4530, 4531, 4532, 4565, 4566, 4567,
4600, 4601, 4602, 4658, 4659, 4660, 4661, 4662, 4696, 4697, 4698, 4731, 4732, 4733, 4766, 4767,
4768, 4824, 4825, 4826, 4827, 4828, 4862, 4863, 4864, 4897, 4898, 4899, 4932, 4933, 4934, 4990,
4991, 4992, 4993, 4994, 5028, 5029, 5030, 5063, 5064, 5065, 5098, 5099, 5100, 5156, 5157, 5158,
5159, 5160, 5194, 5195, 5196, 5229, 5230, 5231, 5264, 5265, 5266, 5322, 5323, 5324, 5325, 5326,
5360, 5361, 5362, 5395, 5396, 5397, 5430, 5431, 5432, 5488, 5489, 5490, 5491, 5492, 5526, 5527,
5528, 5561, 5562, 5563, 5596, 5597, 5598, 5654, 5655, 5656, 5657, 5658, 5692, 5693, 5694, 5727,
5728, 5729, 5762, 5763, 5764, 5820, 5821, 5822, 5823, 5824, 5858, 5859, 5860, 5893, 5894, 5895,
5928, 5929, 5930, 5986, 5987, 5988, 5989, 5990, 6024, 6025, 6026, 6059, 6060, 6061, 6094, 6095,
6096, 6152, 6153, 6154, 6155, 6156, 6190, 6191, 6192, 6225, 6226, 6227, 6260, 6261, 6262, 6318,
6319, 6320, 6321, 6322, 6356, 6357, 6358, 6391, 6392, 6393, 6426, 6427, 6428, 6484, 6485, 6486,
6487, 6488, 6522, 6523, 6524, 6557, 6558, 6559, 6592, 6593, 6594, 6650, 6651, 6652, 6653, 6654,
6688, 6689, 6690, 6723, 6724, 6725, 6758, 6759, 6760, 6816, 6817, 6818, 6819, 6820, 6854, 6855,
6856, 6889, 6890, 6891, 6924, 6925, 6926, 6982, 6983, 6984, 6985, 6986, 7020, 7021, 7022, 7055,
7056, 7057, 7090, 7091, 7092, 7148, 7149, 7150, 7151, 7152, 7186, 7187, 7188, 7221, 7222, 7223,
7256, 7257, 7258, 7314, 7315, 7316, 7317, 7318, 7352, 7353, 7354, 7387, 7388, 7389, 7422, 7423,
7424, 7480, 7481, 7482, 7483, 7484, 7518, 7519, 7520, 7553, 7554, 7555, 7588, 7589, 7590, 7646,
7647, 7648, 7649, 7650, 7684, 7685, 7686, 7719, 7720, 7721, 7754, 7755, 7756, 7812, 7813, 7814,
7815, 7816, 7850, 7851, 7852, 7885, 7886, 7887, 7920, 7921, 7922, 7978, 7979, 7980, 7981, 7982,
8016, 8017, 8018, 8051, 8052, 8053, 8086, 8087, 8088, 8144, 8145, 8146, 8147, 8148, 8182, 8183,
8184, 8217, 8218, 8219, 8252, 8253, 8254, 8310, 8311, 8312, 8313, 8314, 8348, 8349, 8350, 8383,
8384, 8385, 8418, 8419, 8420, 8476, 8477, 8478, 8479, 8480, 8514, 8515, 8516, 8549, 8550, 8551,
8584, 8585, 8586, 8642, 8643, 8644, 8645, 8646, 8680, 8681, 8682, 8715, 8716, 8717, 8750, 8751,
8752, 8808, 8809, 8810, 8811, 8812, 8846, 8847, 8848, 8881, 8882, 8883, 8916, 8917, 8918, 8974,
8975, 8976, 8977, 8978, 9012, 9013, 9014, 9047, 9048, 9049, 9082, 9083, 9084, 9140, 9141, 9142,
9143, 9144, 9178, 9179, 9180, 9213, 9214, 9215, 9248, 9249, 9250, 9306, 9307, 9308, 9309, 9310,
9344, 9345, 9346, 9379, 9380, 9381, 9414, 9415, 9416, 9472, 9473, 9474, 9475, 9476, 9510, 9511,
9512, 9545, 9546, 9547, 9580, 9581, 9582, 9638, 9639, 9640, 9641, 9642, 9676, 9677, 9678, 9711,
9712, 9713, 9746, 9747, 9748, 9804, 9805, 9806, 9807, 9808, 9842, 9843, 9844, 9877, 9878, 9879,
9912, 9913, 9914, 9970, 9971, 9972, 9973, 9974, 10008, 10009, 10010, 10043, 10044, 10045, 10078, 10079,
10080, 10136, 10137, 10138, 10139, 10140, 10174, 10175, 10176, 10209, 10210, 10211, 10244, 10245, 10246, 10302,
10303, 10304, 10305, 10306, 10340, 10341, 10342, 10375, 10376, 10377, 10410, 10411, 10412, 10468, 10469, 10470,
10471, 10472, 10506, 10507, 10508, 10541, 10542, 10543, 10576, 10577, 10578, 10634, 10635, 10636, 10637, 10638,
10672, 10673, 10674, 10707, 10708, 10709, 10742, 10743, 10744, 10800, 10801, 10802, 10803, 10804, 10838, 10839,
10840, 10873, 10874, 10875, 10908, 10909, 10910, 10966, 10967, 10968, 10969, 10970, 11004, 11005, 11006, 11039,
11040, 11041, 11074, 11075, 11076, 11132, 11133, 11134, 11135, 11136, 11170, 11171, 11172, 11205, 11206, 11207,
11240, 11241, 11242, 11298, 11299, 11300, 11301, 11302, 11336, 11337, 11338, 11371, 11372, 11373, 11406, 11407,
11408,
*SURFACE, NAME=INSIDE
1, S3
2, S3
3, S3
4, S3
5, S3
6, S3
7, S3
8, S3
33, S3
34, S3
35, S3
36, S3
37, S3
38, S3
39, S3
40, S3
65, S3
66, S3
67, S3
68, S3
69, S3
70, S3
71, S3
72, S3
97, S3
98, S3
99, S3
100, S3
101, S3
102, S3
103, S3
104, S3
129, S3
130, S3
131, S3
132, S3
133, S3
134, S3
135, S3
136, S3
161, S3
162, S3
163, S3
164, S3
165, S3
166, S3
167, S3
168, S3
193, S3
194, S3
195, S3
196, S3
197, S3
198, S3
199, S3
200, S3
225, S3
226, S3
227, S3
228, S3
229, S3
230, S3
231, S3
232, S3
257, S3
258, S3
259, S3
260, S3
261, S3
262, S3
263, S3
264, S3
289, S3
290, S3
291, S3
292, S3
293, S3
294, S3
295, S3
296, S3
321, S3
322, S3
323, S3
324, S3
325, S3
326, S3
327, S3
328, S3
353, S3
354, S3
355, S3
356, S3
357, S3
358, S3
359, S3
360, S3
385, S3
386, S3
387, S3
388, S3
389, S3
390, S3
391, S3
392, S3
417, S3
418, S3
419, S3
420, S3
421, S3
422, S3
423, S3
424, S3
449, S3
450, S3
451, S3
452, S3
453, S3
454, S3
455, S3
456, S3
481, S3
482, S3
483, S3
484, S3
485, S3
486, S3
487, S3
488, S3
513, S3
514, S3
515, S3
516, S3
517, S3
518, S3
519, S3
520, S3
545, S3
546, S3
547, S3
548, S3
549, S3
550, S3
551, S3
552, S3
577, S3
578, S3
579, S3
580, S3
581, S3
582, S3
583, S3
584, S3
609, S3
610, S3
611, S3
612, S3
613, S3
614, S3
615, S3
616, S3
641, S3
642, S3
643, S3
644, S3
645, S3
646, S3
647, S3
648, S3
673, S3
674, S3
675, S3
676, S3
677, S3
678, S3
679, S3
680, S3
705, S3
706, S3
707, S3
708, S3
709, S3
710, S3
711, S3
712, S3
737, S3
738, S3
739, S3
740, S3
741, S3
742, S3
743, S3
744, S3
769, S3
770, S3
771, S3
772, S3
773, S3
774, S3
775, S3
776, S3
801, S3
802, S3
803, S3
804, S3
805, S3
806, S3
807, S3
808, S3
833, S3
834, S3
835, S3
836, S3
837, S3
838, S3
839, S3
840, S3
865, S3
866, S3
867, S3
868, S3
869, S3
870, S3
871, S3
872, S3
897, S3
898, S3
899, S3
900, S3
901, S3
902, S3
903, S3
904, S3
929, S3
930, S3
931, S3
932, S3
933, S3
934, S3
935, S3
936, S3
961, S3
962, S3
963, S3
964, S3
965, S3
966, S3
967, S3
968, S3
993, S3
994, S3
995, S3
996, S3
997, S3
998, S3
999, S3
1000, S3
1025, S3
1026, S3
1027, S3
1028, S3
1029, S3
1030, S3
1031, S3
1032, S3
1057, S3
1058, S3
1059, S3
1060, S3
1061, S3
1062, S3
1063, S3
1064, S3
1089, S3
1090, S3
1091, S3
1092, S3
1093, S3
1094, S3
1095, S3
1096, S3
1121, S3
1122, S3
1123, S3
1124, S3
1125, S3
1126, S3
1127, S3
1128, S3
1153, S3
1154, S3
1155, S3
1156, S3
1157, S3
1158, S3
1159, S3
1160, S3
1185, S3
1186, S3
1187, S3
1188, S3
1189, S3
1190, S3
1191, S3
1192, S3
1217, S3
1218, S3
1219, S3
1220, S3
1221, S3
1222, S3
1223, S3
1224, S3
1249, S3
1250, S3
1251, S3
1252, S3
1253, S3
1254, S3
1255, S3
1256, S3
1281, S3
1282, S3
1283, S3
1284, S3
1285, S3
1286, S3
1287, S3
1288, S3
1313, S3
1314, S3
1315, S3
1316, S3
1317, S3
1318, S3
1319, S3
1320, S3
1345, S3
1346, S3
1347, S3
1348, S3
1349, S3
1350, S3
1351, S3
1352, S3
1377, S3
1378, S3
1379, S3
1380, S3
1381, S3
1382, S3
1383, S3
1384, S3
1409, S3
1410, S3
1411, S3
1412, S3
1413, S3
1414, S3
1415, S3
1416, S3
1441, S3
1442, S3
1443, S3
1444, S3
1445, S3
1446, S3
1447, S3
1448, S3
1473, S3
1474, S3
1475, S3
1476, S3
1477, S3
1478, S3
1479, S3
1480, S3
1505, S3
1506, S3
1507, S3
1508, S3
1509, S3
1510, S3
1511, S3
1512, S3
1537, S3
1538, S3
1539, S3
1540, S3
1541, S3
1542, S3
1543, S3
1544, S3
1569, S3
1570, S3
1571, S3
1572, S3
1573, S3
1574, S3
1575, S3
1576, S3
1601, S3
1602, S3
1603, S3
1604, S3
1605, S3
1606, S3
1607, S3
1608, S3
1633, S3
1634, S3
1635, S3
1636, S3
1637, S3
1638, S3
1639, S3
1640, S3
1665, S3
1666, S3
1667, S3
1668, S3
1669, S3
1670, S3
1671, S3
1672, S3
1697, S3
1698, S3
1699, S3
1700, S3
1701, S3
1702, S3
1703, S3
1704, S3
1729, S3
1730, S3
1731, S3
1732, S3
1733, S3
1734, S3
1735, S3
1736, S3
1761, S3
1762, S3
1763, S3
1764, S3
1765, S3
1766, S3
1767, S3
1768, S3
1793, S3
1794, S3
1795, S3
1796, S3
1797, S3
1798, S3
1799, S3
1800, S3
1825, S3
1826, S3
1827, S3
1828, S3
1829, S3
1830, S3
1831, S3
1832, S3
1857, S3
1858, S3
1859, S3
1860, S3
1861, S3
1862, S3
1863, S3
1864, S3
1889, S3
1890, S3
1891, S3
1892, S3
1893, S3
1894, S3
1895, S3
1896, S3
1921, S3
1922, S3
1923, S3
1924, S3
1925, S3
1926, S3
1927, S3
1928, S3
1953, S3
1954, S3
1955, S3
1956, S3
1957, S3
1958, S3
1959, S3
1960, S3
1985, S3
1986, S3
1987, S3
1988, S3
1989, S3
1990, S3
1991, S3
1992, S3
2017, S3
2018, S3
2019, S3
2020, S3
2021, S3
2022, S3
2023, S3
2024, S3
2049, S3
2050, S3
2051, S3
2052, S3
2053, S3
2054, S3
2055, S3
2056, S3
2081, S3
2082, S3
2083, S3
2084, S3
2085, S3
2086, S3
2087, S3
2088, S3
2113, S3
2114, S3
2115, S3
2116, S3
2117, S3
2118, S3
2119, S3
2120, S3
2145, S3
2146, S3
2147, S3
2148, S3
2149, S3
2150, S3
2151, S3
2152, S3
*SURFACE, NAME=NOZZLE_END
2145, S4
2146, S4
2147, S4
2148, S4
2149, S4
2150, S4
2151, S4
2152, S4
2153, S4
2154, S4
2155, S4
2156, S4
2157, S4
2158, S4
2159, S4
2160, S4
2161, S4
2162, S4
2163, S4
2164, S4
2165, S4
2166, S4
2167, S4
2168, S4
2169, S4
2170, S4
2171, S4
2172, S4
2173, S4
2174, S4
2175, S4
2176, S4
*MATERIAL, NAME=SA516-70
*ELASTIC
200000., 0.3
*DENSITY
7.85e-9
*SOLID SECTION, ELSET=EALL, MATERIAL=SA516-70
*BOUNDARY
SYM_Z, 3
SYM_Y, 2
SYM_X, 1
** design pressure
*STEP
*STATIC
0.25, 1.
*DLOAD, OP=NEW
INSIDE, P, 2.0
NOZZLE_END, P, -7.031250
*NODE FILE
U
*EL FILE
S
*NODE PRINT, NSET=SYM_Z, TOTALS=ONLY
RF
*END STEP
** hydrotest 1.25 x design
*STEP
*STATIC
0.5, 1.
*DLOAD, OP=NEW
INSIDE, P, 2.5
NOZZLE_END, P, -8.789062
*NODE FILE
U
*EL FILE
S
*NODE PRINT, NSET=SYM_Z, TOTALS=ONLY
RF
*END STEP
** design pressure + nozzle pull
*STEP
*STATIC
0.5, 1.
*DLOAD, OP=NEW
INSIDE, P, 2.0
NOZZLE_END, P, -17.578125
*NODE FILE
U
*EL FILE
S
*NODE PRINT, NSET=SYM_Z, TOTALS=ONLY
RF
*END STEP
