*HEADING
ccxview sample: five contact models, A gap B slide C lift-off D interface opening E tie
*NODE, NSET=NALL
1, -15, -10, -6
2, -11.666667, -10, -6
3, -8.3333333, -10, -6
4, -5, -10, -6
5, -1.6666667, -10, -6
6, 1.6666667, -10, -6
7, 5, -10, -6
8, 8.3333333, -10, -6
9, 11.666667, -10, -6
10, 15, -10, -6
11, -15, -6.6666667, -6
12, -11.666667, -6.6666667, -6
13, -8.3333333, -6.6666667, -6
14, -5, -6.6666667, -6
15, -1.6666667, -6.6666667, -6
16, 1.6666667, -6.6666667, -6
17, 5, -6.6666667, -6
18, 8.3333333, -6.6666667, -6
19, 11.666667, -6.6666667, -6
20, 15, -6.6666667, -6
21, -15, -3.3333333, -6
22, -11.666667, -3.3333333, -6
23, -8.3333333, -3.3333333, -6
24, -5, -3.3333333, -6
25, -1.6666667, -3.3333333, -6
26, 1.6666667, -3.3333333, -6
27, 5, -3.3333333, -6
28, 8.3333333, -3.3333333, -6
29, 11.666667, -3.3333333, -6
30, 15, -3.3333333, -6
31, -15, 0, -6
32, -11.666667, 0, -6
33, -8.3333333, 0, -6
34, -5, 0, -6
35, -1.6666667, 0, -6
36, 1.6666667, 0, -6
37, 5, 0, -6
38, 8.3333333, 0, -6
39, 11.666667, 0, -6
40, 15, 0, -6
41, -15, 3.3333333, -6
42, -11.666667, 3.3333333, -6
43, -8.3333333, 3.3333333, -6
44, -5, 3.3333333, -6
45, -1.6666667, 3.3333333, -6
46, 1.6666667, 3.3333333, -6
47, 5, 3.3333333, -6
48, 8.3333333, 3.3333333, -6
49, 11.666667, 3.3333333, -6
50, 15, 3.3333333, -6
51, -15, 6.6666667, -6
52, -11.666667, 6.6666667, -6
53, -8.3333333, 6.6666667, -6
54, -5, 6.6666667, -6
55, -1.6666667, 6.6666667, -6
56, 1.6666667, 6.6666667, -6
57, 5, 6.6666667, -6
58, 8.3333333, 6.6666667, -6
59, 11.666667, 6.6666667, -6
60, 15, 6.6666667, -6
61, -15, 10, -6
62, -11.666667, 10, -6
63, -8.3333333, 10, -6
64, -5, 10, -6
65, -1.6666667, 10, -6
66, 1.6666667, 10, -6
67, 5, 10, -6
68, 8.3333333, 10, -6
69, 11.666667, 10, -6
70, 15, 10, -6
71, -15, -10, 0
72, -11.666667, -10, 0
73, -8.3333333, -10, 0
74, -5, -10, 0
75, -1.6666667, -10, 0
76, 1.6666667, -10, 0
77, 5, -10, 0
78, 8.3333333, -10, 0
79, 11.666667, -10, 0
80, 15, -10, 0
81, -15, -6.6666667, 0
82, -11.666667, -6.6666667, 0
83, -8.3333333, -6.6666667, 0
84, -5, -6.6666667, 0
85, -1.6666667, -6.6666667, 0
86, 1.6666667, -6.6666667, 0
87, 5, -6.6666667, 0
88, 8.3333333, -6.6666667, 0
89, 11.666667, -6.6666667, 0
90, 15, -6.6666667, 0
91, -15, -3.3333333, 0
92, -11.666667, -3.3333333, 0
93, -8.3333333, -3.3333333, 0
94, -5, -3.3333333, 0
95, -1.6666667, -3.3333333, 0
96, 1.6666667, -3.3333333, 0
97, 5, -3.3333333, 0
98, 8.3333333, -3.3333333, 0
99, 11.666667, -3.3333333, 0
100, 15, -3.3333333, 0
101, -15, 0, 0
102, -11.666667, 0, 0
103, -8.3333333, 0, 0
104, -5, 0, 0
105, -1.6666667, 0, 0
106, 1.6666667, 0, 0
107, 5, 0, 0
108, 8.3333333, 0, 0
109, 11.666667, 0, 0
110, 15, 0, 0
111, -15, 3.3333333, 0
112, -11.666667, 3.3333333, 0
113, -8.3333333, 3.3333333, 0
114, -5, 3.3333333, 0
115, -1.6666667, 3.3333333, 0
116, 1.6666667, 3.3333333, 0
117, 5, 3.3333333, 0
118, 8.3333333, 3.3333333, 0
119, 11.666667, 3.3333333, 0
120, 15, 3.3333333, 0
121, -15, 6.6666667, 0
122, -11.666667, 6.6666667, 0
123, -8.3333333, 6.6666667, 0
124, -5, 6.6666667, 0
125, -1.6666667, 6.6666667, 0
126, 1.6666667, 6.6666667, 0
127, 5, 6.6666667, 0
128, 8.3333333, 6.6666667, 0
129, 11.666667, 6.6666667, 0
130, 15, 6.6666667, 0
131, -15, 10, 0
132, -11.666667, 10, 0
133, -8.3333333, 10, 0
134, -5, 10, 0
135, -1.6666667, 10, 0
136, 1.6666667, 10, 0
137, 5, 10, 0
138, 8.3333333, 10, 0
139, 11.666667, 10, 0
140, 15, 10, 0
141, -10, -6, 0
142, -8.0003999, -6, 0.039992002
143, -6.0007998, -6, 0.079984005
144, -4.0011996, -6, 0.11997601
145, -2.0015995, -6, 0.15996801
146, -0.0019994002, -6, 0.19996001
147, 1.9976007, -6, 0.23995201
148, 3.9972008, -6, 0.27994402
149, 5.996801, -6, 0.31993602
150, 7.9964011, -6, 0.35992802
151, 9.9960012, -6, 0.39992002
152, -10, -4, 0
153, -8.0003999, -4, 0.039992002
154, -6.0007998, -4, 0.079984005
155, -4.0011996, -4, 0.11997601
156, -2.0015995, -4, 0.15996801
157, -0.0019994002, -4, 0.19996001
158, 1.9976007, -4, 0.23995201
159, 3.9972008, -4, 0.27994402
160, 5.996801, -4, 0.31993602
161, 7.9964011, -4, 0.35992802
162, 9.9960012, -4, 0.39992002
163, -10, -2, 0
164, -8.0003999, -2, 0.039992002
165, -6.0007998, -2, 0.079984005
166, -4.0011996, -2, 0.11997601
167, -2.0015995, -2, 0.15996801
168, -0.0019994002, -2, 0.19996001
169, 1.9976007, -2, 0.23995201
170, 3.9972008, -2, 0.27994402
171, 5.996801, -2, 0.31993602
172, 7.9964011, -2, 0.35992802
173, 9.9960012, -2, 0.39992002
174, -10, 0, 0
175, -8.0003999, 0, 0.039992002
176, -6.0007998, 0, 0.079984005
177, -4.0011996, 0, 0.11997601
178, -2.0015995, 0, 0.15996801
179, -0.0019994002, 0, 0.19996001
180, 1.9976007, 0, 0.23995201
181, 3.9972008, 0, 0.27994402
182, 5.996801, 0, 0.31993602
183, 7.9964011, 0, 0.35992802
184, 9.9960012, 0, 0.39992002
185, -10, 2, 0
186, -8.0003999, 2, 0.039992002
187, -6.0007998, 2, 0.079984005
188, -4.0011996, 2, 0.11997601
189, -2.0015995, 2, 0.15996801
190, -0.0019994002, 2, 0.19996001
191, 1.9976007, 2, 0.23995201
192, 3.9972008, 2, 0.27994402
193, 5.996801, 2, 0.31993602
194, 7.9964011, 2, 0.35992802
195, 9.9960012, 2, 0.39992002
196, -10, 4, 0
197, -8.0003999, 4, 0.039992002
198, -6.0007998, 4, 0.079984005
199, -4.0011996, 4, 0.11997601
200, -2.0015995, 4, 0.15996801
201, -0.0019994002, 4, 0.19996001
202, 1.9976007, 4, 0.23995201
203, 3.9972008, 4, 0.27994402
204, 5.996801, 4, 0.31993602
205, 7.9964011, 4, 0.35992802
206, 9.9960012, 4, 0.39992002
207, -10, 6, 0
208, -8.0003999, 6, 0.039992002
209, -6.0007998, 6, 0.079984005
210, -4.0011996, 6, 0.11997601
211, -2.0015995, 6, 0.15996801
212, -0.0019994002, 6, 0.19996001
213, 1.9976007, 6, 0.23995201
214, 3.9972008, 6, 0.27994402
215, 5.996801, 6, 0.31993602
216, 7.9964011, 6, 0.35992802
217, 9.9960012, 6, 0.39992002
218, -10.066653, -6, 3.3326669
219, -8.0670532, -6, 3.3726589
220, -6.0674531, -6, 3.4126509
221, -4.067853, -6, 3.4526429
222, -2.0682529, -6, 3.4926349
223, -0.068652738, -6, 3.5326269
224, 1.9309474, -6, 3.5726189
225, 3.9305475, -6, 3.6126109
226, 5.9301476, -6, 3.6526029
227, 7.9297477, -6, 3.6925949
228, 9.9293479, -6, 3.7325869
229, -10.066653, -4, 3.3326669
230, -8.0670532, -4, 3.3726589
231, -6.0674531, -4, 3.4126509
232, -4.067853, -4, 3.4526429
233, -2.0682529, -4, 3.4926349
234, -0.068652738, -4, 3.5326269
235, 1.9309474, -4, 3.5726189
236, 3.9305475, -4, 3.6126109
237, 5.9301476, -4, 3.6526029
238, 7.9297477, -4, 3.6925949
239, 9.9293479, -4, 3.7325869
240, -10.066653, -2, 3.3326669
241, -8.0670532, -2, 3.3726589
242, -6.0674531, -2, 3.4126509
243, -4.067853, -2, 3.4526429
244, -2.0682529, -2, 3.4926349
245, -0.068652738, -2, 3.5326269
246, 1.9309474, -2, 3.5726189
247, 3.9305475, -2, 3.6126109
248, 5.9301476, -2, 3.6526029
249, 7.9297477, -2, 3.6925949
250, 9.9293479, -2, 3.7325869
251, -10.066653, 0, 3.3326669
252, -8.0670532, 0, 3.3726589
253, -6.0674531, 0, 3.4126509
254, -4.067853, 0, 3.4526429
255, -2.0682529, 0, 3.4926349
256, -0.068652738, 0, 3.5326269
257, 1.9309474, 0, 3.5726189
258, 3.9305475, 0, 3.6126109
259, 5.9301476, 0, 3.6526029
260, 7.9297477, 0, 3.6925949
261, 9.9293479, 0, 3.7325869
262, -10.066653, 2, 3.3326669
263, -8.0670532, 2, 3.3726589
264, -6.0674531, 2, 3.4126509
265, -4.067853, 2, 3.4526429
266, -2.0682529, 2, 3.4926349
267, -0.068652738, 2, 3.5326269
268, 1.9309474, 2, 3.5726189
269, 3.9305475, 2, 3.6126109
270, 5.9301476, 2, 3.6526029
271, 7.9297477, 2, 3.6925949
272, 9.9293479, 2, 3.7325869
273, -10.066653, 4, 3.3326669
274, -8.0670532, 4, 3.3726589
275, -6.0674531, 4, 3.4126509
276, -4.067853, 4, 3.4526429
277, -2.0682529, 4, 3.4926349
278, -0.068652738, 4, 3.5326269
279, 1.9309474, 4, 3.5726189
280, 3.9305475, 4, 3.6126109
281, 5.9301476, 4, 3.6526029
282, 7.9297477, 4, 3.6925949
283, 9.9293479, 4, 3.7325869
284, -10.066653, 6, 3.3326669
285, -8.0670532, 6, 3.3726589
286, -6.0674531, 6, 3.4126509
287, -4.067853, 6, 3.4526429
288, -2.0682529, 6, 3.4926349
289, -0.068652738, 6, 3.5326269
290, 1.9309474, 6, 3.5726189
291, 3.9305475, 6, 3.6126109
292, 5.9301476, 6, 3.6526029
293, 7.9297477, 6, 3.6925949
294, 9.9293479, 6, 3.7325869
295, -10.133307, -6, 6.6653337
296, -8.1337066, -6, 6.7053257
297, -6.1341064, -6, 6.7453177
298, -4.1345063, -6, 6.7853097
299, -2.1349062, -6, 6.8253017
300, -0.13530607, -6, 6.8652937
301, 1.864294, -6, 6.9052857
302, 3.8638942, -6, 6.9452777
303, 5.8634943, -6, 6.9852698
304, 7.8630944, -6, 7.0252618
305, 9.8626945, -6, 7.0652538
306, -10.133307, -4, 6.6653337
307, -8.1337066, -4, 6.7053257
308, -6.1341064, -4, 6.7453177
309, -4.1345063, -4, 6.7853097
310, -2.1349062, -4, 6.8253017
311, -0.13530607, -4, 6.8652937
312, 1.864294, -4, 6.9052857
313, 3.8638942, -4, 6.9452777
314, 5.8634943, -4, 6.9852698
315, 7.8630944, -4, 7.0252618
316, 9.8626945, -4, 7.0652538
317, -10.133307, -2, 6.6653337
318, -8.1337066, -2, 6.7053257
319, -6.1341064, -2, 6.7453177
320, -4.1345063, -2, 6.7853097
321, -2.1349062, -2, 6.8253017
322, -0.13530607, -2, 6.8652937
323, 1.864294, -2, 6.9052857
324, 3.8638942, -2, 6.9452777
325, 5.8634943, -2, 6.9852698
326, 7.8630944, -2, 7.0252618
327, 9.8626945, -2, 7.0652538
328, -10.133307, 0, 6.6653337
329, -8.1337066, 0, 6.7053257
330, -6.1341064, 0, 6.7453177
331, -4.1345063, 0, 6.7853097
332, -2.1349062, 0, 6.8253017
333, -0.13530607, 0, 6.8652937
334, 1.864294, 0, 6.9052857
335, 3.8638942, 0, 6.9452777
336, 5.8634943, 0, 6.9852698
337, 7.8630944, 0, 7.0252618
338, 9.8626945, 0, 7.0652538
339, -10.133307, 2, 6.6653337
340, -8.1337066, 2, 6.7053257
341, -6.1341064, 2, 6.7453177
342, -4.1345063, 2, 6.7853097
343, -2.1349062, 2, 6.8253017
344, -0.13530607, 2, 6.8652937
345, 1.864294, 2, 6.9052857
346, 3.8638942, 2, 6.9452777
347, 5.8634943, 2, 6.9852698
348, 7.8630944, 2, 7.0252618
349, 9.8626945, 2, 7.0652538
350, -10.133307, 4, 6.6653337
351, -8.1337066, 4, 6.7053257
352, -6.1341064, 4, 6.7453177
353, -4.1345063, 4, 6.7853097
354, -2.1349062, 4, 6.8253017
355, -0.13530607, 4, 6.8652937
356, 1.864294, 4, 6.9052857
357, 3.8638942, 4, 6.9452777
358, 5.8634943, 4, 6.9852698
359, 7.8630944, 4, 7.0252618
360, 9.8626945, 4, 7.0652538
361, -10.133307, 6, 6.6653337
362, -8.1337066, 6, 6.7053257
363, -6.1341064, 6, 6.7453177
364, -4.1345063, 6, 6.7853097
365, -2.1349062, 6, 6.8253017
366, -0.13530607, 6, 6.8652937
367, 1.864294, 6, 6.9052857
368, 3.8638942, 6, 6.9452777
369, 5.8634943, 6, 6.9852698
370, 7.8630944, 6, 7.0252618
371, 9.8626945, 6, 7.0652538
372, -10.19996, -6, 9.9980006
373, -8.2003599, -6, 10.037993
374, -6.2007598, -6, 10.077985
375, -4.2011597, -6, 10.117977
376, -2.2015595, -6, 10.157969
377, -0.20195941, -6, 10.197961
378, 1.7976407, -6, 10.237953
379, 3.7972408, -6, 10.277945
380, 5.7968409, -6, 10.317937
381, 7.7964411, -6, 10.357929
382, 9.7960412, -6, 10.397921
383, -10.19996, -4, 9.9980006
384, -8.2003599, -4, 10.037993
385, -6.2007598, -4, 10.077985
386, -4.2011597, -4, 10.117977
387, -2.2015595, -4, 10.157969
388, -0.20195941, -4, 10.197961
389, 1.7976407, -4, 10.237953
390, 3.7972408, -4, 10.277945
391, 5.7968409, -4, 10.317937
392, 7.7964411, -4, 10.357929
393, 9.7960412, -4, 10.397921
394, -10.19996, -2, 9.9980006
395, -8.2003599, -2, 10.037993
396, -6.2007598, -2, 10.077985
397, -4.2011597, -2, 10.117977
398, -2.2015595, -2, 10.157969
399, -0.20195941, -2, 10.197961
400, 1.7976407, -2, 10.237953
401, 3.7972408, -2, 10.277945
402, 5.7968409, -2, 10.317937
403, 7.7964411, -2, 10.357929
404, 9.7960412, -2, 10.397921
405, -10.19996, 0, 9.9980006
406, -8.2003599, 0, 10.037993
407, -6.2007598, 0, 10.077985
408, -4.2011597, 0, 10.117977
409, -2.2015595, 0, 10.157969
410, -0.20195941, 0, 10.197961
411, 1.7976407, 0, 10.237953
412, 3.7972408, 0, 10.277945
413, 5.7968409, 0, 10.317937
414, 7.7964411, 0, 10.357929
415, 9.7960412, 0, 10.397921
416, -10.19996, 2, 9.9980006
417, -8.2003599, 2, 10.037993
418, -6.2007598, 2, 10.077985
419, -4.2011597, 2, 10.117977
420, -2.2015595, 2, 10.157969
421, -0.20195941, 2, 10.197961
422, 1.7976407, 2, 10.237953
423, 3.7972408, 2, 10.277945
424, 5.7968409, 2, 10.317937
425, 7.7964411, 2, 10.357929
426, 9.7960412, 2, 10.397921
427, -10.19996, 4, 9.9980006
428, -8.2003599, 4, 10.037993
429, -6.2007598, 4, 10.077985
430, -4.2011597, 4, 10.117977
431, -2.2015595, 4, 10.157969
432, -0.20195941, 4, 10.197961
433, 1.7976407, 4, 10.237953
434, 3.7972408, 4, 10.277945
435, 5.7968409, 4, 10.317937
436, 7.7964411, 4, 10.357929
437, 9.7960412, 4, 10.397921
438, -10.19996, 6, 9.9980006
439, -8.2003599, 6, 10.037993
440, -6.2007598, 6, 10.077985
441, -4.2011597, 6, 10.117977
442, -2.2015595, 6, 10.157969
443, -0.20195941, 6, 10.197961
444, 1.7976407, 6, 10.237953
445, 3.7972408, 6, 10.277945
446, 5.7968409, 6, 10.317937
447, 7.7964411, 6, 10.357929
448, 9.7960412, 6, 10.397921
449, 60, -10, -6
450, 63.333333, -10, -6
451, 66.666667, -10, -6
452, 70, -10, -6
453, 73.333333, -10, -6
454, 76.666667, -10, -6
455, 80, -10, -6
456, 83.333333, -10, -6
457, 86.666667, -10, -6
458, 90, -10, -6
459, 60, -6.6666667, -6
460, 63.333333, -6.6666667, -6
461, 66.666667, -6.6666667, -6
462, 70, -6.6666667, -6
463, 73.333333, -6.6666667, -6
464, 76.666667, -6.6666667, -6
465, 80, -6.6666667, -6
466, 83.333333, -6.6666667, -6
467, 86.666667, -6.6666667, -6
468, 90, -6.6666667, -6
469, 60, -3.3333333, -6
470, 63.333333, -3.3333333, -6
471, 66.666667, -3.3333333, -6
472, 70, -3.3333333, -6
473, 73.333333, -3.3333333, -6
474, 76.666667, -3.3333333, -6
475, 80, -3.3333333, -6
476, 83.333333, -3.3333333, -6
477, 86.666667, -3.3333333, -6
478, 90, -3.3333333, -6
479, 60, 0, -6
480, 63.333333, 0, -6
481, 66.666667, 0, -6
482, 70, 0, -6
483, 73.333333, 0, -6
484, 76.666667, 0, -6
485, 80, 0, -6
486, 83.333333, 0, -6
487, 86.666667, 0, -6
488, 90, 0, -6
489, 60, 3.3333333, -6
490, 63.333333, 3.3333333, -6
491, 66.666667, 3.3333333, -6
492, 70, 3.3333333, -6
493, 73.333333, 3.3333333, -6
494, 76.666667, 3.3333333, -6
495, 80, 3.3333333, -6
496, 83.333333, 3.3333333, -6
497, 86.666667, 3.3333333, -6
498, 90, 3.3333333, -6
499, 60, 6.6666667, -6
500, 63.333333, 6.6666667, -6
501, 66.666667, 6.6666667, -6
502, 70, 6.6666667, -6
503, 73.333333, 6.6666667, -6
504, 76.666667, 6.6666667, -6
505, 80, 6.6666667, -6
506, 83.333333, 6.6666667, -6
507, 86.666667, 6.6666667, -6
508, 90, 6.6666667, -6
509, 60, 10, -6
510, 63.333333, 10, -6
511, 66.666667, 10, -6
512, 70, 10, -6
513, 73.333333, 10, -6
514, 76.666667, 10, -6
515, 80, 10, -6
516, 83.333333, 10, -6
517, 86.666667, 10, -6
518, 90, 10, -6
519, 60, -10, 0
520, 63.333333, -10, 0
521, 66.666667, -10, 0
522, 70, -10, 0
523, 73.333333, -10, 0
524, 76.666667, -10, 0
525, 80, -10, 0
526, 83.333333, -10, 0
527, 86.666667, -10, 0
528, 90, -10, 0
529, 60, -6.6666667, 0
530, 63.333333, -6.6666667, 0
531, 66.666667, -6.6666667, 0
532, 70, -6.6666667, 0
533, 73.333333, -6.6666667, 0
534, 76.666667, -6.6666667, 0
535, 80, -6.6666667, 0
536, 83.333333, -6.6666667, 0
537, 86.666667, -6.6666667, 0
538, 90, -6.6666667, 0
539, 60, -3.3333333, 0
540, 63.333333, -3.3333333, 0
541, 66.666667, -3.3333333, 0
542, 70, -3.3333333, 0
543, 73.333333, -3.3333333, 0
544, 76.666667, -3.3333333, 0
545, 80, -3.3333333, 0
546, 83.333333, -3.3333333, 0
547, 86.666667, -3.3333333, 0
548, 90, -3.3333333, 0
549, 60, 0, 0
550, 63.333333, 0, 0
551, 66.666667, 0, 0
552, 70, 0, 0
553, 73.333333, 0, 0
554, 76.666667, 0, 0
555, 80, 0, 0
556, 83.333333, 0, 0
557, 86.666667, 0, 0
558, 90, 0, 0
559, 60, 3.3333333, 0
560, 63.333333, 3.3333333, 0
561, 66.666667, 3.3333333, 0
562, 70, 3.3333333, 0
563, 73.333333, 3.3333333, 0
564, 76.666667, 3.3333333, 0
565, 80, 3.3333333, 0
566, 83.333333, 3.3333333, 0
567, 86.666667, 3.3333333, 0
568, 90, 3.3333333, 0
569, 60, 6.6666667, 0
570, 63.333333, 6.6666667, 0
571, 66.666667, 6.6666667, 0
572, 70, 6.6666667, 0
573, 73.333333, 6.6666667, 0
574, 76.666667, 6.6666667, 0
575, 80, 6.6666667, 0
576, 83.333333, 6.6666667, 0
577, 86.666667, 6.6666667, 0
578, 90, 6.6666667, 0
579, 60, 10, 0
580, 63.333333, 10, 0
581, 66.666667, 10, 0
582, 70, 10, 0
583, 73.333333, 10, 0
584, 76.666667, 10, 0
585, 80, 10, 0
586, 83.333333, 10, 0
587, 86.666667, 10, 0
588, 90, 10, 0
589, 66.8, -6.1, 0
590, 68.8, -6.1, 0
591, 70.8, -6.1, 0
592, 72.8, -6.1, 0
593, 74.8, -6.1, 0
594, 76.8, -6.1, 0
595, 78.8, -6.1, 0
596, 80.8, -6.1, 0
597, 82.8, -6.1, 0
598, 66.8, -4.1, 0
599, 68.8, -4.1, 0
600, 70.8, -4.1, 0
601, 72.8, -4.1, 0
602, 74.8, -4.1, 0
603, 76.8, -4.1, 0
604, 78.8, -4.1, 0
605, 80.8, -4.1, 0
606, 82.8, -4.1, 0
607, 66.8, -2.1, 0
608, 68.8, -2.1, 0
609, 70.8, -2.1, 0
610, 72.8, -2.1, 0
611, 74.8, -2.1, 0
612, 76.8, -2.1, 0
613, 78.8, -2.1, 0
614, 80.8, -2.1, 0
615, 82.8, -2.1, 0
616, 66.8, -0.1, 0
617, 68.8, -0.1, 0
618, 70.8, -0.1, 0
619, 72.8, -0.1, 0
620, 74.8, -0.1, 0
621, 76.8, -0.1, 0
622, 78.8, -0.1, 0
623, 80.8, -0.1, 0
624, 82.8, -0.1, 0
625, 66.8, 1.9, 0
626, 68.8, 1.9, 0
627, 70.8, 1.9, 0
628, 72.8, 1.9, 0
629, 74.8, 1.9, 0
630, 76.8, 1.9, 0
631, 78.8, 1.9, 0
632, 80.8, 1.9, 0
633, 82.8, 1.9, 0
634, 66.8, 3.9, 0
635, 68.8, 3.9, 0
636, 70.8, 3.9, 0
637, 72.8, 3.9, 0
638, 74.8, 3.9, 0
639, 76.8, 3.9, 0
640, 78.8, 3.9, 0
641, 80.8, 3.9, 0
642, 82.8, 3.9, 0
643, 66.8, 5.9, 0
644, 68.8, 5.9, 0
645, 70.8, 5.9, 0
646, 72.8, 5.9, 0
647, 74.8, 5.9, 0
648, 76.8, 5.9, 0
649, 78.8, 5.9, 0
650, 80.8, 5.9, 0
651, 82.8, 5.9, 0
652, 66.8, -6.1, 2.6666667
653, 68.8, -6.1, 2.6666667
654, 70.8, -6.1, 2.6666667
655, 72.8, -6.1, 2.6666667
656, 74.8, -6.1, 2.6666667
657, 76.8, -6.1, 2.6666667
658, 78.8, -6.1, 2.6666667
659, 80.8, -6.1, 2.6666667
660, 82.8, -6.1, 2.6666667
661, 66.8, -4.1, 2.6666667
662, 68.8, -4.1, 2.6666667
663, 70.8, -4.1, 2.6666667
664, 72.8, -4.1, 2.6666667
665, 74.8, -4.1, 2.6666667
666, 76.8, -4.1, 2.6666667
667, 78.8, -4.1, 2.6666667
668, 80.8, -4.1, 2.6666667
669, 82.8, -4.1, 2.6666667
670, 66.8, -2.1, 2.6666667
671, 68.8, -2.1, 2.6666667
672, 70.8, -2.1, 2.6666667
673, 72.8, -2.1, 2.6666667
674, 74.8, -2.1, 2.6666667
675, 76.8, -2.1, 2.6666667
676, 78.8, -2.1, 2.6666667
677, 80.8, -2.1, 2.6666667
678, 82.8, -2.1, 2.6666667
679, 66.8, -0.1, 2.6666667
680, 68.8, -0.1, 2.6666667
681, 70.8, -0.1, 2.6666667
682, 72.8, -0.1, 2.6666667
683, 74.8, -0.1, 2.6666667
684, 76.8, -0.1, 2.6666667
685, 78.8, -0.1, 2.6666667
686, 80.8, -0.1, 2.6666667
687, 82.8, -0.1, 2.6666667
688, 66.8, 1.9, 2.6666667
689, 68.8, 1.9, 2.6666667
690, 70.8, 1.9, 2.6666667
691, 72.8, 1.9, 2.6666667
692, 74.8, 1.9, 2.6666667
693, 76.8, 1.9, 2.6666667
694, 78.8, 1.9, 2.6666667
695, 80.8, 1.9, 2.6666667
696, 82.8, 1.9, 2.6666667
697, 66.8, 3.9, 2.6666667
698, 68.8, 3.9, 2.6666667
699, 70.8, 3.9, 2.6666667
700, 72.8, 3.9, 2.6666667
701, 74.8, 3.9, 2.6666667
702, 76.8, 3.9, 2.6666667
703, 78.8, 3.9, 2.6666667
704, 80.8, 3.9, 2.6666667
705, 82.8, 3.9, 2.6666667
706, 66.8, 5.9, 2.6666667
707, 68.8, 5.9, 2.6666667
708, 70.8, 5.9, 2.6666667
709, 72.8, 5.9, 2.6666667
710, 74.8, 5.9, 2.6666667
711, 76.8, 5.9, 2.6666667
712, 78.8, 5.9, 2.6666667
713, 80.8, 5.9, 2.6666667
714, 82.8, 5.9, 2.6666667
715, 66.8, -6.1, 5.3333333
716, 68.8, -6.1, 5.3333333
717, 70.8, -6.1, 5.3333333
718, 72.8, -6.1, 5.3333333
719, 74.8, -6.1, 5.3333333
720, 76.8, -6.1, 5.3333333
721, 78.8, -6.1, 5.3333333
722, 80.8, -6.1, 5.3333333
723, 82.8, -6.1, 5.3333333
724, 66.8, -4.1, 5.3333333
725, 68.8, -4.1, 5.3333333
726, 70.8, -4.1, 5.3333333
727, 72.8, -4.1, 5.3333333
728, 74.8, -4.1, 5.3333333
729, 76.8, -4.1, 5.3333333
730, 78.8, -4.1, 5.3333333
731, 80.8, -4.1, 5.3333333
732, 82.8, -4.1, 5.3333333
733, 66.8, -2.1, 5.3333333
734, 68.8, -2.1, 5.3333333
735, 70.8, -2.1, 5.3333333
736, 72.8, -2.1, 5.3333333
737, 74.8, -2.1, 5.3333333
738, 76.8, -2.1, 5.3333333
739, 78.8, -2.1, 5.3333333
740, 80.8, -2.1, 5.3333333
741, 82.8, -2.1, 5.3333333
742, 66.8, -0.1, 5.3333333
743, 68.8, -0.1, 5.3333333
744, 70.8, -0.1, 5.3333333
745, 72.8, -0.1, 5.3333333
746, 74.8, -0.1, 5.3333333
747, 76.8, -0.1, 5.3333333
748, 78.8, -0.1, 5.3333333
749, 80.8, -0.1, 5.3333333
750, 82.8, -0.1, 5.3333333
751, 66.8, 1.9, 5.3333333
752, 68.8, 1.9, 5.3333333
753, 70.8, 1.9, 5.3333333
754, 72.8, 1.9, 5.3333333
755, 74.8, 1.9, 5.3333333
756, 76.8, 1.9, 5.3333333
757, 78.8, 1.9, 5.3333333
758, 80.8, 1.9, 5.3333333
759, 82.8, 1.9, 5.3333333
760, 66.8, 3.9, 5.3333333
761, 68.8, 3.9, 5.3333333
762, 70.8, 3.9, 5.3333333
763, 72.8, 3.9, 5.3333333
764, 74.8, 3.9, 5.3333333
765, 76.8, 3.9, 5.3333333
766, 78.8, 3.9, 5.3333333
767, 80.8, 3.9, 5.3333333
768, 82.8, 3.9, 5.3333333
769, 66.8, 5.9, 5.3333333
770, 68.8, 5.9, 5.3333333
771, 70.8, 5.9, 5.3333333
772, 72.8, 5.9, 5.3333333
773, 74.8, 5.9, 5.3333333
774, 76.8, 5.9, 5.3333333
775, 78.8, 5.9, 5.3333333
776, 80.8, 5.9, 5.3333333
777, 82.8, 5.9, 5.3333333
778, 66.8, -6.1, 8
779, 68.8, -6.1, 8
780, 70.8, -6.1, 8
781, 72.8, -6.1, 8
782, 74.8, -6.1, 8
783, 76.8, -6.1, 8
784, 78.8, -6.1, 8
785, 80.8, -6.1, 8
786, 82.8, -6.1, 8
787, 66.8, -4.1, 8
788, 68.8, -4.1, 8
789, 70.8, -4.1, 8
790, 72.8, -4.1, 8
791, 74.8, -4.1, 8
792, 76.8, -4.1, 8
793, 78.8, -4.1, 8
794, 80.8, -4.1, 8
795, 82.8, -4.1, 8
796, 66.8, -2.1, 8
797, 68.8, -2.1, 8
798, 70.8, -2.1, 8
799, 72.8, -2.1, 8
800, 74.8, -2.1, 8
801, 76.8, -2.1, 8
802, 78.8, -2.1, 8
803, 80.8, -2.1, 8
804, 82.8, -2.1, 8
805, 66.8, -0.1, 8
806, 68.8, -0.1, 8
807, 70.8, -0.1, 8
808, 72.8, -0.1, 8
809, 74.8, -0.1, 8
810, 76.8, -0.1, 8
811, 78.8, -0.1, 8
812, 80.8, -0.1, 8
813, 82.8, -0.1, 8
814, 66.8, 1.9, 8
815, 68.8, 1.9, 8
816, 70.8, 1.9, 8
817, 72.8, 1.9, 8
818, 74.8, 1.9, 8
819, 76.8, 1.9, 8
820, 78.8, 1.9, 8
821, 80.8, 1.9, 8
822, 82.8, 1.9, 8
823, 66.8, 3.9, 8
824, 68.8, 3.9, 8
825, 70.8, 3.9, 8
826, 72.8, 3.9, 8
827, 74.8, 3.9, 8
828, 76.8, 3.9, 8
829, 78.8, 3.9, 8
830, 80.8, 3.9, 8
831, 82.8, 3.9, 8
832, 66.8, 5.9, 8
833, 68.8, 5.9, 8
834, 70.8, 5.9, 8
835, 72.8, 5.9, 8
836, 74.8, 5.9, 8
837, 76.8, 5.9, 8
838, 78.8, 5.9, 8
839, 80.8, 5.9, 8
840, 82.8, 5.9, 8
841, 135, -10, -6
842, 138.33333, -10, -6
843, 141.66667, -10, -6
844, 145, -10, -6
845, 148.33333, -10, -6
846, 151.66667, -10, -6
847, 155, -10, -6
848, 158.33333, -10, -6
849, 161.66667, -10, -6
850, 165, -10, -6
851, 135, -6.6666667, -6
852, 138.33333, -6.6666667, -6
853, 141.66667, -6.6666667, -6
854, 145, -6.6666667, -6
855, 148.33333, -6.6666667, -6
856, 151.66667, -6.6666667, -6
857, 155, -6.6666667, -6
858, 158.33333, -6.6666667, -6
859, 161.66667, -6.6666667, -6
860, 165, -6.6666667, -6
861, 135, -3.3333333, -6
862, 138.33333, -3.3333333, -6
863, 141.66667, -3.3333333, -6
864, 145, -3.3333333, -6
865, 148.33333, -3.3333333, -6
866, 151.66667, -3.3333333, -6
867, 155, -3.3333333, -6
868, 158.33333, -3.3333333, -6
869, 161.66667, -3.3333333, -6
870, 165, -3.3333333, -6
871, 135, 0, -6
872, 138.33333, 0, -6
873, 141.66667, 0, -6
874, 145, 0, -6
875, 148.33333, 0, -6
876, 151.66667, 0, -6
877, 155, 0, -6
878, 158.33333, 0, -6
879, 161.66667, 0, -6
880, 165, 0, -6
881, 135, 3.3333333, -6
882, 138.33333, 3.3333333, -6
883, 141.66667, 3.3333333, -6
884, 145, 3.3333333, -6
885, 148.33333, 3.3333333, -6
886, 151.66667, 3.3333333, -6
887, 155, 3.3333333, -6
888, 158.33333, 3.3333333, -6
889, 161.66667, 3.3333333, -6
890, 165, 3.3333333, -6
891, 135, 6.6666667, -6
892, 138.33333, 6.6666667, -6
893, 141.66667, 6.6666667, -6
894, 145, 6.6666667, -6
895, 148.33333, 6.6666667, -6
896, 151.66667, 6.6666667, -6
897, 155, 6.6666667, -6
898, 158.33333, 6.6666667, -6
899, 161.66667, 6.6666667, -6
900, 165, 6.6666667, -6
901, 135, 10, -6
902, 138.33333, 10, -6
903, 141.66667, 10, -6
904, 145, 10, -6
905, 148.33333, 10, -6
906, 151.66667, 10, -6
907, 155, 10, -6
908, 158.33333, 10, -6
909, 161.66667, 10, -6
910, 165, 10, -6
911, 135, -10, 0
912, 138.33333, -10, 0
913, 141.66667, -10, 0
914, 145, -10, 0
915, 148.33333, -10, 0
916, 151.66667, -10, 0
917, 155, -10, 0
918, 158.33333, -10, 0
919, 161.66667, -10, 0
920, 165, -10, 0
921, 135, -6.6666667, 0
922, 138.33333, -6.6666667, 0
923, 141.66667, -6.6666667, 0
924, 145, -6.6666667, 0
925, 148.33333, -6.6666667, 0
926, 151.66667, -6.6666667, 0
927, 155, -6.6666667, 0
928, 158.33333, -6.6666667, 0
929, 161.66667, -6.6666667, 0
930, 165, -6.6666667, 0
931, 135, -3.3333333, 0
932, 138.33333, -3.3333333, 0
933, 141.66667, -3.3333333, 0
934, 145, -3.3333333, 0
935, 148.33333, -3.3333333, 0
936, 151.66667, -3.3333333, 0
937, 155, -3.3333333, 0
938, 158.33333, -3.3333333, 0
939, 161.66667, -3.3333333, 0
940, 165, -3.3333333, 0
941, 135, 0, 0
942, 138.33333, 0, 0
943, 141.66667, 0, 0
944, 145, 0, 0
945, 148.33333, 0, 0
946, 151.66667, 0, 0
947, 155, 0, 0
948, 158.33333, 0, 0
949, 161.66667, 0, 0
950, 165, 0, 0
951, 135, 3.3333333, 0
952, 138.33333, 3.3333333, 0
953, 141.66667, 3.3333333, 0
954, 145, 3.3333333, 0
955, 148.33333, 3.3333333, 0
956, 151.66667, 3.3333333, 0
957, 155, 3.3333333, 0
958, 158.33333, 3.3333333, 0
959, 161.66667, 3.3333333, 0
960, 165, 3.3333333, 0
961, 135, 6.6666667, 0
962, 138.33333, 6.6666667, 0
963, 141.66667, 6.6666667, 0
964, 145, 6.6666667, 0
965, 148.33333, 6.6666667, 0
966, 151.66667, 6.6666667, 0
967, 155, 6.6666667, 0
968, 158.33333, 6.6666667, 0
969, 161.66667, 6.6666667, 0
970, 165, 6.6666667, 0
971, 135, 10, 0
972, 138.33333, 10, 0
973, 141.66667, 10, 0
974, 145, 10, 0
975, 148.33333, 10, 0
976, 151.66667, 10, 0
977, 155, 10, 0
978, 158.33333, 10, 0
979, 161.66667, 10, 0
980, 165, 10, 0
981, 139.8, -6.1, 0
982, 141.8, -6.1, 0
983, 143.8, -6.1, 0
984, 145.8, -6.1, 0
985, 147.8, -6.1, 0
986, 149.8, -6.1, 0
987, 151.8, -6.1, 0
988, 153.8, -6.1, 0
989, 155.8, -6.1, 0
990, 157.8, -6.1, 0
991, 159.8, -6.1, 0
992, 139.8, -4.1, 0
993, 141.8, -4.1, 0
994, 143.8, -4.1, 0
995, 145.8, -4.1, 0
996, 147.8, -4.1, 0
997, 149.8, -4.1, 0
998, 151.8, -4.1, 0
999, 153.8, -4.1, 0
1000, 155.8, -4.1, 0
1001, 157.8, -4.1, 0
1002, 159.8, -4.1, 0
1003, 139.8, -2.1, 0
1004, 141.8, -2.1, 0
1005, 143.8, -2.1, 0
1006, 145.8, -2.1, 0
1007, 147.8, -2.1, 0
1008, 149.8, -2.1, 0
1009, 151.8, -2.1, 0
1010, 153.8, -2.1, 0
1011, 155.8, -2.1, 0
1012, 157.8, -2.1, 0
1013, 159.8, -2.1, 0
1014, 139.8, -0.1, 0
1015, 141.8, -0.1, 0
1016, 143.8, -0.1, 0
1017, 145.8, -0.1, 0
1018, 147.8, -0.1, 0
1019, 149.8, -0.1, 0
1020, 151.8, -0.1, 0
1021, 153.8, -0.1, 0
1022, 155.8, -0.1, 0
1023, 157.8, -0.1, 0
1024, 159.8, -0.1, 0
1025, 139.8, 1.9, 0
1026, 141.8, 1.9, 0
1027, 143.8, 1.9, 0
1028, 145.8, 1.9, 0
1029, 147.8, 1.9, 0
1030, 149.8, 1.9, 0
1031, 151.8, 1.9, 0
1032, 153.8, 1.9, 0
1033, 155.8, 1.9, 0
1034, 157.8, 1.9, 0
1035, 159.8, 1.9, 0
1036, 139.8, 3.9, 0
1037, 141.8, 3.9, 0
1038, 143.8, 3.9, 0
1039, 145.8, 3.9, 0
1040, 147.8, 3.9, 0
1041, 149.8, 3.9, 0
1042, 151.8, 3.9, 0
1043, 153.8, 3.9, 0
1044, 155.8, 3.9, 0
1045, 157.8, 3.9, 0
1046, 159.8, 3.9, 0
1047, 139.8, 5.9, 0
1048, 141.8, 5.9, 0
1049, 143.8, 5.9, 0
1050, 145.8, 5.9, 0
1051, 147.8, 5.9, 0
1052, 149.8, 5.9, 0
1053, 151.8, 5.9, 0
1054, 153.8, 5.9, 0
1055, 155.8, 5.9, 0
1056, 157.8, 5.9, 0
1057, 159.8, 5.9, 0
1058, 139.8, -6.1, 2.6666667
1059, 141.8, -6.1, 2.6666667
1060, 143.8, -6.1, 2.6666667
1061, 145.8, -6.1, 2.6666667
1062, 147.8, -6.1, 2.6666667
1063, 149.8, -6.1, 2.6666667
1064, 151.8, -6.1, 2.6666667
1065, 153.8, -6.1, 2.6666667
1066, 155.8, -6.1, 2.6666667
1067, 157.8, -6.1, 2.6666667
1068, 159.8, -6.1, 2.6666667
1069, 139.8, -4.1, 2.6666667
1070, 141.8, -4.1, 2.6666667
1071, 143.8, -4.1, 2.6666667
1072, 145.8, -4.1, 2.6666667
1073, 147.8, -4.1, 2.6666667
1074, 149.8, -4.1, 2.6666667
1075, 151.8, -4.1, 2.6666667
1076, 153.8, -4.1, 2.6666667
1077, 155.8, -4.1, 2.6666667
1078, 157.8, -4.1, 2.6666667
1079, 159.8, -4.1, 2.6666667
1080, 139.8, -2.1, 2.6666667
1081, 141.8, -2.1, 2.6666667
1082, 143.8, -2.1, 2.6666667
1083, 145.8, -2.1, 2.6666667
1084, 147.8, -2.1, 2.6666667
1085, 149.8, -2.1, 2.6666667
1086, 151.8, -2.1, 2.6666667
1087, 153.8, -2.1, 2.6666667
1088, 155.8, -2.1, 2.6666667
1089, 157.8, -2.1, 2.6666667
1090, 159.8, -2.1, 2.6666667
1091, 139.8, -0.1, 2.6666667
1092, 141.8, -0.1, 2.6666667
1093, 143.8, -0.1, 2.6666667
1094, 145.8, -0.1, 2.6666667
1095, 147.8, -0.1, 2.6666667
1096, 149.8, -0.1, 2.6666667
1097, 151.8, -0.1, 2.6666667
1098, 153.8, -0.1, 2.6666667
1099, 155.8, -0.1, 2.6666667
1100, 157.8, -0.1, 2.6666667
1101, 159.8, -0.1, 2.6666667
1102, 139.8, 1.9, 2.6666667
1103, 141.8, 1.9, 2.6666667
1104, 143.8, 1.9, 2.6666667
1105, 145.8, 1.9, 2.6666667
1106, 147.8, 1.9, 2.6666667
1107, 149.8, 1.9, 2.6666667
1108, 151.8, 1.9, 2.6666667
1109, 153.8, 1.9, 2.6666667
1110, 155.8, 1.9, 2.6666667
1111, 157.8, 1.9, 2.6666667
1112, 159.8, 1.9, 2.6666667
1113, 139.8, 3.9, 2.6666667
1114, 141.8, 3.9, 2.6666667
1115, 143.8, 3.9, 2.6666667
1116, 145.8, 3.9, 2.6666667
1117, 147.8, 3.9, 2.6666667
1118, 149.8, 3.9, 2.6666667
1119, 151.8, 3.9, 2.6666667
1120, 153.8, 3.9, 2.6666667
1121, 155.8, 3.9, 2.6666667
1122, 157.8, 3.9, 2.6666667
1123, 159.8, 3.9, 2.6666667
1124, 139.8, 5.9, 2.6666667
1125, 141.8, 5.9, 2.6666667
1126, 143.8, 5.9, 2.6666667
1127, 145.8, 5.9, 2.6666667
1128, 147.8, 5.9, 2.6666667
1129, 149.8, 5.9, 2.6666667
1130, 151.8, 5.9, 2.6666667
1131, 153.8, 5.9, 2.6666667
1132, 155.8, 5.9, 2.6666667
1133, 157.8, 5.9, 2.6666667
1134, 159.8, 5.9, 2.6666667
1135, 139.8, -6.1, 5.3333333
1136, 141.8, -6.1, 5.3333333
1137, 143.8, -6.1, 5.3333333
1138, 145.8, -6.1, 5.3333333
1139, 147.8, -6.1, 5.3333333
1140, 149.8, -6.1, 5.3333333
1141, 151.8, -6.1, 5.3333333
1142, 153.8, -6.1, 5.3333333
1143, 155.8, -6.1, 5.3333333
1144, 157.8, -6.1, 5.3333333
1145, 159.8, -6.1, 5.3333333
1146, 139.8, -4.1, 5.3333333
1147, 141.8, -4.1, 5.3333333
1148, 143.8, -4.1, 5.3333333
1149, 145.8, -4.1, 5.3333333
1150, 147.8, -4.1, 5.3333333
1151, 149.8, -4.1, 5.3333333
1152, 151.8, -4.1, 5.3333333
1153, 153.8, -4.1, 5.3333333
1154, 155.8, -4.1, 5.3333333
1155, 157.8, -4.1, 5.3333333
1156, 159.8, -4.1, 5.3333333
1157, 139.8, -2.1, 5.3333333
1158, 141.8, -2.1, 5.3333333
1159, 143.8, -2.1, 5.3333333
1160, 145.8, -2.1, 5.3333333
1161, 147.8, -2.1, 5.3333333
1162, 149.8, -2.1, 5.3333333
1163, 151.8, -2.1, 5.3333333
1164, 153.8, -2.1, 5.3333333
1165, 155.8, -2.1, 5.3333333
1166, 157.8, -2.1, 5.3333333
1167, 159.8, -2.1, 5.3333333
1168, 139.8, -0.1, 5.3333333
1169, 141.8, -0.1, 5.3333333
1170, 143.8, -0.1, 5.3333333
1171, 145.8, -0.1, 5.3333333
1172, 147.8, -0.1, 5.3333333
1173, 149.8, -0.1, 5.3333333
1174, 151.8, -0.1, 5.3333333
1175, 153.8, -0.1, 5.3333333
1176, 155.8, -0.1, 5.3333333
1177, 157.8, -0.1, 5.3333333
1178, 159.8, -0.1, 5.3333333
1179, 139.8, 1.9, 5.3333333
1180, 141.8, 1.9, 5.3333333
1181, 143.8, 1.9, 5.3333333
1182, 145.8, 1.9, 5.3333333
1183, 147.8, 1.9, 5.3333333
1184, 149.8, 1.9, 5.3333333
1185, 151.8, 1.9, 5.3333333
1186, 153.8, 1.9, 5.3333333
1187, 155.8, 1.9, 5.3333333
1188, 157.8, 1.9, 5.3333333
1189, 159.8, 1.9, 5.3333333
1190, 139.8, 3.9, 5.3333333
1191, 141.8, 3.9, 5.3333333
1192, 143.8, 3.9, 5.3333333
1193, 145.8, 3.9, 5.3333333
1194, 147.8, 3.9, 5.3333333
1195, 149.8, 3.9, 5.3333333
1196, 151.8, 3.9, 5.3333333
1197, 153.8, 3.9, 5.3333333
1198, 155.8, 3.9, 5.3333333
1199, 157.8, 3.9, 5.3333333
1200, 159.8, 3.9, 5.3333333
1201, 139.8, 5.9, 5.3333333
1202, 141.8, 5.9, 5.3333333
1203, 143.8, 5.9, 5.3333333
1204, 145.8, 5.9, 5.3333333
1205, 147.8, 5.9, 5.3333333
1206, 149.8, 5.9, 5.3333333
1207, 151.8, 5.9, 5.3333333
1208, 153.8, 5.9, 5.3333333
1209, 155.8, 5.9, 5.3333333
1210, 157.8, 5.9, 5.3333333
1211, 159.8, 5.9, 5.3333333
1212, 139.8, -6.1, 8
1213, 141.8, -6.1, 8
1214, 143.8, -6.1, 8
1215, 145.8, -6.1, 8
1216, 147.8, -6.1, 8
1217, 149.8, -6.1, 8
1218, 151.8, -6.1, 8
1219, 153.8, -6.1, 8
1220, 155.8, -6.1, 8
1221, 157.8, -6.1, 8
1222, 159.8, -6.1, 8
1223, 139.8, -4.1, 8
1224, 141.8, -4.1, 8
1225, 143.8, -4.1, 8
1226, 145.8, -4.1, 8
1227, 147.8, -4.1, 8
1228, 149.8, -4.1, 8
1229, 151.8, -4.1, 8
1230, 153.8, -4.1, 8
1231, 155.8, -4.1, 8
1232, 157.8, -4.1, 8
1233, 159.8, -4.1, 8
1234, 139.8, -2.1, 8
1235, 141.8, -2.1, 8
1236, 143.8, -2.1, 8
1237, 145.8, -2.1, 8
1238, 147.8, -2.1, 8
1239, 149.8, -2.1, 8
1240, 151.8, -2.1, 8
1241, 153.8, -2.1, 8
1242, 155.8, -2.1, 8
1243, 157.8, -2.1, 8
1244, 159.8, -2.1, 8
1245, 139.8, -0.1, 8
1246, 141.8, -0.1, 8
1247, 143.8, -0.1, 8
1248, 145.8, -0.1, 8
1249, 147.8, -0.1, 8
1250, 149.8, -0.1, 8
1251, 151.8, -0.1, 8
1252, 153.8, -0.1, 8
1253, 155.8, -0.1, 8
1254, 157.8, -0.1, 8
1255, 159.8, -0.1, 8
1256, 139.8, 1.9, 8
1257, 141.8, 1.9, 8
1258, 143.8, 1.9, 8
1259, 145.8, 1.9, 8
1260, 147.8, 1.9, 8
1261, 149.8, 1.9, 8
1262, 151.8, 1.9, 8
1263, 153.8, 1.9, 8
1264, 155.8, 1.9, 8
1265, 157.8, 1.9, 8
1266, 159.8, 1.9, 8
1267, 139.8, 3.9, 8
1268, 141.8, 3.9, 8
1269, 143.8, 3.9, 8
1270, 145.8, 3.9, 8
1271, 147.8, 3.9, 8
1272, 149.8, 3.9, 8
1273, 151.8, 3.9, 8
1274, 153.8, 3.9, 8
1275, 155.8, 3.9, 8
1276, 157.8, 3.9, 8
1277, 159.8, 3.9, 8
1278, 139.8, 5.9, 8
1279, 141.8, 5.9, 8
1280, 143.8, 5.9, 8
1281, 145.8, 5.9, 8
1282, 147.8, 5.9, 8
1283, 149.8, 5.9, 8
1284, 151.8, 5.9, 8
1285, 153.8, 5.9, 8
1286, 155.8, 5.9, 8
1287, 157.8, 5.9, 8
1288, 159.8, 5.9, 8
1289, 149.8, -0.1, 8
1290, 149.8, -0.1, 12
1291, 0, -65, -4
1292, 4, -65, -4
1293, 8, -65, -4
1294, 12, -65, -4
1295, 16, -65, -4
1296, 20, -65, -4
1297, 24, -65, -4
1298, 28, -65, -4
1299, 32, -65, -4
1300, 36, -65, -4
1301, 40, -65, -4
1302, 44, -65, -4
1303, 48, -65, -4
1304, 52, -65, -4
1305, 56, -65, -4
1306, 60, -65, -4
1307, 0, -60, -4
1308, 4, -60, -4
1309, 8, -60, -4
1310, 12, -60, -4
1311, 16, -60, -4
1312, 20, -60, -4
1313, 24, -60, -4
1314, 28, -60, -4
1315, 32, -60, -4
1316, 36, -60, -4
1317, 40, -60, -4
1318, 44, -60, -4
1319, 48, -60, -4
1320, 52, -60, -4
1321, 56, -60, -4
1322, 60, -60, -4
1323, 0, -55, -4
1324, 4, -55, -4
1325, 8, -55, -4
1326, 12, -55, -4
1327, 16, -55, -4
1328, 20, -55, -4
1329, 24, -55, -4
1330, 28, -55, -4
1331, 32, -55, -4
1332, 36, -55, -4
1333, 40, -55, -4
1334, 44, -55, -4
1335, 48, -55, -4
1336, 52, -55, -4
1337, 56, -55, -4
1338, 60, -55, -4
1339, 0, -65, 0
1340, 4, -65, 0
1341, 8, -65, 0
1342, 12, -65, 0
1343, 16, -65, 0
1344, 20, -65, 0
1345, 24, -65, 0
1346, 28, -65, 0
1347, 32, -65, 0
1348, 36, -65, 0
1349, 40, -65, 0
1350, 44, -65, 0
1351, 48, -65, 0
1352, 52, -65, 0
1353, 56, -65, 0
1354, 60, -65, 0
1355, 0, -60, 0
1356, 4, -60, 0
1357, 8, -60, 0
1358, 12, -60, 0
1359, 16, -60, 0
1360, 20, -60, 0
1361, 24, -60, 0
1362, 28, -60, 0
1363, 32, -60, 0
1364, 36, -60, 0
1365, 40, -60, 0
1366, 44, -60, 0
1367, 48, -60, 0
1368, 52, -60, 0
1369, 56, -60, 0
1370, 60, -60, 0
1371, 0, -55, 0
1372, 4, -55, 0
1373, 8, -55, 0
1374, 12, -55, 0
1375, 16, -55, 0
1376, 20, -55, 0
1377, 24, -55, 0
1378, 28, -55, 0
1379, 32, -55, 0
1380, 36, -55, 0
1381, 40, -55, 0
1382, 44, -55, 0
1383, 48, -55, 0
1384, 52, -55, 0
1385, 56, -55, 0
1386, 60, -55, 0
1387, 0.5, -64.8, 0
1388, 2.9583333, -64.8, 0
1389, 5.4166667, -64.8, 0
1390, 7.875, -64.8, 0
1391, 10.333333, -64.8, 0
1392, 12.791667, -64.8, 0
1393, 15.25, -64.8, 0
1394, 17.708333, -64.8, 0
1395, 20.166667, -64.8, 0
1396, 22.625, -64.8, 0
1397, 25.083333, -64.8, 0
1398, 27.541667, -64.8, 0
1399, 30, -64.8, 0
1400, 32.458333, -64.8, 0
1401, 34.916667, -64.8, 0
1402, 37.375, -64.8, 0
1403, 39.833333, -64.8, 0
1404, 42.291667, -64.8, 0
1405, 44.75, -64.8, 0
1406, 47.208333, -64.8, 0
1407, 49.666667, -64.8, 0
1408, 52.125, -64.8, 0
1409, 54.583333, -64.8, 0
1410, 57.041667, -64.8, 0
1411, 59.5, -64.8, 0
1412, 0.5, -61.6, 0
1413, 2.9583333, -61.6, 0
1414, 5.4166667, -61.6, 0
1415, 7.875, -61.6, 0
1416, 10.333333, -61.6, 0
1417, 12.791667, -61.6, 0
1418, 15.25, -61.6, 0
1419, 17.708333, -61.6, 0
1420, 20.166667, -61.6, 0
1421, 22.625, -61.6, 0
1422, 25.083333, -61.6, 0
1423, 27.541667, -61.6, 0
1424, 30, -61.6, 0
1425, 32.458333, -61.6, 0
1426, 34.916667, -61.6, 0
1427, 37.375, -61.6, 0
1428, 39.833333, -61.6, 0
1429, 42.291667, -61.6, 0
1430, 44.75, -61.6, 0
1431, 47.208333, -61.6, 0
1432, 49.666667, -61.6, 0
1433, 52.125, -61.6, 0
1434, 54.583333, -61.6, 0
1435, 57.041667, -61.6, 0
1436, 59.5, -61.6, 0
1437, 0.5, -58.4, 0
1438, 2.9583333, -58.4, 0
1439, 5.4166667, -58.4, 0
1440, 7.875, -58.4, 0
1441, 10.333333, -58.4, 0
1442, 12.791667, -58.4, 0
1443, 15.25, -58.4, 0
1444, 17.708333, -58.4, 0
1445, 20.166667, -58.4, 0
1446, 22.625, -58.4, 0
1447, 25.083333, -58.4, 0
1448, 27.541667, -58.4, 0
1449, 30, -58.4, 0
1450, 32.458333, -58.4, 0
1451, 34.916667, -58.4, 0
1452, 37.375, -58.4, 0
1453, 39.833333, -58.4, 0
1454, 42.291667, -58.4, 0
1455, 44.75, -58.4, 0
1456, 47.208333, -58.4, 0
1457, 49.666667, -58.4, 0
1458, 52.125, -58.4, 0
1459, 54.583333, -58.4, 0
1460, 57.041667, -58.4, 0
1461, 59.5, -58.4, 0
1462, 0.5, -55.2, 0
1463, 2.9583333, -55.2, 0
1464, 5.4166667, -55.2, 0
1465, 7.875, -55.2, 0
1466, 10.333333, -55.2, 0
1467, 12.791667, -55.2, 0
1468, 15.25, -55.2, 0
1469, 17.708333, -55.2, 0
1470, 20.166667, -55.2, 0
1471, 22.625, -55.2, 0
1472, 25.083333, -55.2, 0
1473, 27.541667, -55.2, 0
1474, 30, -55.2, 0
1475, 32.458333, -55.2, 0
1476, 34.916667, -55.2, 0
1477, 37.375, -55.2, 0
1478, 39.833333, -55.2, 0
1479, 42.291667, -55.2, 0
1480, 44.75, -55.2, 0
1481, 47.208333, -55.2, 0
1482, 49.666667, -55.2, 0
1483, 52.125, -55.2, 0
1484, 54.583333, -55.2, 0
1485, 57.041667, -55.2, 0
1486, 59.5, -55.2, 0
1487, 0.5, -64.8, 2
1488, 2.9583333, -64.8, 2
1489, 5.4166667, -64.8, 2
1490, 7.875, -64.8, 2
1491, 10.333333, -64.8, 2
1492, 12.791667, -64.8, 2
1493, 15.25, -64.8, 2
1494, 17.708333, -64.8, 2
1495, 20.166667, -64.8, 2
1496, 22.625, -64.8, 2
1497, 25.083333, -64.8, 2
1498, 27.541667, -64.8, 2
1499, 30, -64.8, 2
1500, 32.458333, -64.8, 2
1501, 34.916667, -64.8, 2
1502, 37.375, -64.8, 2
1503, 39.833333, -64.8, 2
1504, 42.291667, -64.8, 2
1505, 44.75, -64.8, 2
1506, 47.208333, -64.8, 2
1507, 49.666667, -64.8, 2
1508, 52.125, -64.8, 2
1509, 54.583333, -64.8, 2
1510, 57.041667, -64.8, 2
1511, 59.5, -64.8, 2
1512, 0.5, -61.6, 2
1513, 2.9583333, -61.6, 2
1514, 5.4166667, -61.6, 2
1515, 7.875, -61.6, 2
1516, 10.333333, -61.6, 2
1517, 12.791667, -61.6, 2
1518, 15.25, -61.6, 2
1519, 17.708333, -61.6, 2
1520, 20.166667, -61.6, 2
1521, 22.625, -61.6, 2
1522, 25.083333, -61.6, 2
1523, 27.541667, -61.6, 2
1524, 30, -61.6, 2
1525, 32.458333, -61.6, 2
1526, 34.916667, -61.6, 2
1527, 37.375, -61.6, 2
1528, 39.833333, -61.6, 2
1529, 42.291667, -61.6, 2
1530, 44.75, -61.6, 2
1531, 47.208333, -61.6, 2
1532, 49.666667, -61.6, 2
1533, 52.125, -61.6, 2
1534, 54.583333, -61.6, 2
1535, 57.041667, -61.6, 2
1536, 59.5, -61.6, 2
1537, 0.5, -58.4, 2
1538, 2.9583333, -58.4, 2
1539, 5.4166667, -58.4, 2
1540, 7.875, -58.4, 2
1541, 10.333333, -58.4, 2
1542, 12.791667, -58.4, 2
1543, 15.25, -58.4, 2
1544, 17.708333, -58.4, 2
1545, 20.166667, -58.4, 2
1546, 22.625, -58.4, 2
1547, 25.083333, -58.4, 2
1548, 27.541667, -58.4, 2
1549, 30, -58.4, 2
1550, 32.458333, -58.4, 2
1551, 34.916667, -58.4, 2
1552, 37.375, -58.4, 2
1553, 39.833333, -58.4, 2
1554, 42.291667, -58.4, 2
1555, 44.75, -58.4, 2
1556, 47.208333, -58.4, 2
1557, 49.666667, -58.4, 2
1558, 52.125, -58.4, 2
1559, 54.583333, -58.4, 2
1560, 57.041667, -58.4, 2
1561, 59.5, -58.4, 2
1562, 0.5, -55.2, 2
1563, 2.9583333, -55.2, 2
1564, 5.4166667, -55.2, 2
1565, 7.875, -55.2, 2
1566, 10.333333, -55.2, 2
1567, 12.791667, -55.2, 2
1568, 15.25, -55.2, 2
1569, 17.708333, -55.2, 2
1570, 20.166667, -55.2, 2
1571, 22.625, -55.2, 2
1572, 25.083333, -55.2, 2
1573, 27.541667, -55.2, 2
1574, 30, -55.2, 2
1575, 32.458333, -55.2, 2
1576, 34.916667, -55.2, 2
1577, 37.375, -55.2, 2
1578, 39.833333, -55.2, 2
1579, 42.291667, -55.2, 2
1580, 44.75, -55.2, 2
1581, 47.208333, -55.2, 2
1582, 49.666667, -55.2, 2
1583, 52.125, -55.2, 2
1584, 54.583333, -55.2, 2
1585, 57.041667, -55.2, 2
1586, 59.5, -55.2, 2
1587, 107, -68, -8
1588, 112, -68, -8
1589, 117, -68, -8
1590, 122, -68, -8
1591, 127, -68, -8
1592, 132, -68, -8
1593, 137, -68, -8
1594, 107, -64, -8
1595, 112, -64, -8
1596, 117, -64, -8
1597, 122, -64, -8
1598, 127, -64, -8
1599, 132, -64, -8
1600, 137, -64, -8
1601, 107, -60, -8
1602, 112, -60, -8
1603, 117, -60, -8
1604, 122, -60, -8
1605, 127, -60, -8
1606, 132, -60, -8
1607, 137, -60, -8
1608, 107, -56, -8
1609, 112, -56, -8
1610, 117, -56, -8
1611, 122, -56, -8
1612, 127, -56, -8
1613, 132, -56, -8
1614, 137, -56, -8
1615, 107, -52, -8
1616, 112, -52, -8
1617, 117, -52, -8
1618, 122, -52, -8
1619, 127, -52, -8
1620, 132, -52, -8
1621, 137, -52, -8
1622, 107, -68, -4
1623, 112, -68, -4
1624, 117, -68, -4
1625, 122, -68, -4
1626, 127, -68, -4
1627, 132, -68, -4
1628, 137, -68, -4
1629, 107, -64, -4
1630, 112, -64, -4
1631, 117, -64, -4
1632, 122, -64, -4
1633, 127, -64, -4
1634, 132, -64, -4
1635, 137, -64, -4
1636, 107, -60, -4
1637, 112, -60, -4
1638, 117, -60, -4
1639, 122, -60, -4
1640, 127, -60, -4
1641, 132, -60, -4
1642, 137, -60, -4
1643, 107, -56, -4
1644, 112, -56, -4
1645, 117, -56, -4
1646, 122, -56, -4
1647, 127, -56, -4
1648, 132, -56, -4
1649, 137, -56, -4
1650, 107, -52, -4
1651, 112, -52, -4
1652, 117, -52, -4
1653, 122, -52, -4
1654, 127, -52, -4
1655, 132, -52, -4
1656, 137, -52, -4
1657, 107, -68, 0
1658, 112, -68, 0
1659, 117, -68, 0
1660, 122, -68, 0
1661, 127, -68, 0
1662, 132, -68, 0
1663, 137, -68, 0
1664, 107, -64, 0
1665, 112, -64, 0
1666, 117, -64, 0
1667, 122, -64, 0
1668, 127, -64, 0
1669, 132, -64, 0
1670, 137, -64, 0
1671, 107, -60, 0
1672, 112, -60, 0
1673, 117, -60, 0
1674, 122, -60, 0
1675, 127, -60, 0
1676, 132, -60, 0
1677, 137, -60, 0
1678, 107, -56, 0
1679, 112, -56, 0
1680, 117, -56, 0
1681, 122, -56, 0
1682, 127, -56, 0
1683, 132, -56, 0
1684, 137, -56, 0
1685, 107, -52, 0
1686, 112, -52, 0
1687, 117, -52, 0
1688, 122, -52, 0
1689, 127, -52, 0
1690, 132, -52, 0
1691, 137, -52, 0
1692, 119, -68, 0
1693, 121.66667, -68, 0
1694, 124.33333, -68, 0
1695, 127, -68, 0
1696, 129.66667, -68, 0
1697, 132.33333, -68, 0
1698, 135, -68, 0
1699, 137.66667, -68, 0
1700, 140.33333, -68, 0
1701, 143, -68, 0
1702, 119, -64.8, 0
1703, 121.66667, -64.8, 0
1704, 124.33333, -64.8, 0
1705, 127, -64.8, 0
1706, 129.66667, -64.8, 0
1707, 132.33333, -64.8, 0
1708, 135, -64.8, 0
1709, 137.66667, -64.8, 0
1710, 140.33333, -64.8, 0
1711, 143, -64.8, 0
1712, 119, -61.6, 0
1713, 121.66667, -61.6, 0
1714, 124.33333, -61.6, 0
1715, 127, -61.6, 0
1716, 129.66667, -61.6, 0
1717, 132.33333, -61.6, 0
1718, 135, -61.6, 0
1719, 137.66667, -61.6, 0
1720, 140.33333, -61.6, 0
1721, 143, -61.6, 0
1722, 119, -58.4, 0
1723, 121.66667, -58.4, 0
1724, 124.33333, -58.4, 0
1725, 127, -58.4, 0
1726, 129.66667, -58.4, 0
1727, 132.33333, -58.4, 0
1728, 135, -58.4, 0
1729, 137.66667, -58.4, 0
1730, 140.33333, -58.4, 0
1731, 143, -58.4, 0
1732, 119, -55.2, 0
1733, 121.66667, -55.2, 0
1734, 124.33333, -55.2, 0
1735, 127, -55.2, 0
1736, 129.66667, -55.2, 0
1737, 132.33333, -55.2, 0
1738, 135, -55.2, 0
1739, 137.66667, -55.2, 0
1740, 140.33333, -55.2, 0
1741, 143, -55.2, 0
1742, 119, -52, 0
1743, 121.66667, -52, 0
1744, 124.33333, -52, 0
1745, 127, -52, 0
1746, 129.66667, -52, 0
1747, 132.33333, -52, 0
1748, 135, -52, 0
1749, 137.66667, -52, 0
1750, 140.33333, -52, 0
1751, 143, -52, 0
1752, 119, -68, 4
1753, 121.66667, -68, 4
1754, 124.33333, -68, 4
1755, 127, -68, 4
1756, 129.66667, -68, 4
1757, 132.33333, -68, 4
1758, 135, -68, 4
1759, 137.66667, -68, 4
1760, 140.33333, -68, 4
1761, 143, -68, 4
1762, 119, -64.8, 4
1763, 121.66667, -64.8, 4
1764, 124.33333, -64.8, 4
1765, 127, -64.8, 4
1766, 129.66667, -64.8, 4
1767, 132.33333, -64.8, 4
1768, 135, -64.8, 4
1769, 137.66667, -64.8, 4
1770, 140.33333, -64.8, 4
1771, 143, -64.8, 4
1772, 119, -61.6, 4
1773, 121.66667, -61.6, 4
1774, 124.33333, -61.6, 4
1775, 127, -61.6, 4
1776, 129.66667, -61.6, 4
1777, 132.33333, -61.6, 4
1778, 135, -61.6, 4
1779, 137.66667, -61.6, 4
1780, 140.33333, -61.6, 4
1781, 143, -61.6, 4
1782, 119, -58.4, 4
1783, 121.66667, -58.4, 4
1784, 124.33333, -58.4, 4
1785, 127, -58.4, 4
1786, 129.66667, -58.4, 4
1787, 132.33333, -58.4, 4
1788, 135, -58.4, 4
1789, 137.66667, -58.4, 4
1790, 140.33333, -58.4, 4
1791, 143, -58.4, 4
1792, 119, -55.2, 4
1793, 121.66667, -55.2, 4
1794, 124.33333, -55.2, 4
1795, 127, -55.2, 4
1796, 129.66667, -55.2, 4
1797, 132.33333, -55.2, 4
1798, 135, -55.2, 4
1799, 137.66667, -55.2, 4
1800, 140.33333, -55.2, 4
1801, 143, -55.2, 4
1802, 119, -52, 4
1803, 121.66667, -52, 4
1804, 124.33333, -52, 4
1805, 127, -52, 4
1806, 129.66667, -52, 4
1807, 132.33333, -52, 4
1808, 135, -52, 4
1809, 137.66667, -52, 4
1810, 140.33333, -52, 4
1811, 143, -52, 4
1812, 119, -68, 8
1813, 121.66667, -68, 8
1814, 124.33333, -68, 8
1815, 127, -68, 8
1816, 129.66667, -68, 8
1817, 132.33333, -68, 8
1818, 135, -68, 8
1819, 137.66667, -68, 8
1820, 140.33333, -68, 8
1821, 143, -68, 8
1822, 119, -64.8, 8
1823, 121.66667, -64.8, 8
1824, 124.33333, -64.8, 8
1825, 127, -64.8, 8
1826, 129.66667, -64.8, 8
1827, 132.33333, -64.8, 8
1828, 135, -64.8, 8
1829, 137.66667, -64.8, 8
1830, 140.33333, -64.8, 8
1831, 143, -64.8, 8
1832, 119, -61.6, 8
1833, 121.66667, -61.6, 8
1834, 124.33333, -61.6, 8
1835, 127, -61.6, 8
1836, 129.66667, -61.6, 8
1837, 132.33333, -61.6, 8
1838, 135, -61.6, 8
1839, 137.66667, -61.6, 8
1840, 140.33333, -61.6, 8
1841, 143, -61.6, 8
1842, 119, -58.4, 8
1843, 121.66667, -58.4, 8
1844, 124.33333, -58.4, 8
1845, 127, -58.4, 8
1846, 129.66667, -58.4, 8
1847, 132.33333, -58.4, 8
1848, 135, -58.4, 8
1849, 137.66667, -58.4, 8
1850, 140.33333, -58.4, 8
1851, 143, -58.4, 8
1852, 119, -55.2, 8
1853, 121.66667, -55.2, 8
1854, 124.33333, -55.2, 8
1855, 127, -55.2, 8
1856, 129.66667, -55.2, 8
1857, 132.33333, -55.2, 8
1858, 135, -55.2, 8
1859, 137.66667, -55.2, 8
1860, 140.33333, -55.2, 8
1861, 143, -55.2, 8
1862, 119, -52, 8
1863, 121.66667, -52, 8
1864, 124.33333, -52, 8
1865, 127, -52, 8
1866, 129.66667, -52, 8
1867, 132.33333, -52, 8
1868, 135, -52, 8
1869, 137.66667, -52, 8
1870, 140.33333, -52, 8
1871, 143, -52, 8
*ELEMENT, TYPE=C3D8I, ELSET=A_GAP_PLATE
1, 1, 2, 12, 11, 71, 72, 82, 81
2, 2, 3, 13, 12, 72, 73, 83, 82
3, 3, 4, 14, 13, 73, 74, 84, 83
4, 4, 5, 15, 14, 74, 75, 85, 84
5, 5, 6, 16, 15, 75, 76, 86, 85
6, 6, 7, 17, 16, 76, 77, 87, 86
7, 7, 8, 18, 17, 77, 78, 88, 87
8, 8, 9, 19, 18, 78, 79, 89, 88
9, 9, 10, 20, 19, 79, 80, 90, 89
10, 11, 12, 22, 21, 81, 82, 92, 91
11, 12, 13, 23, 22, 82, 83, 93, 92
12, 13, 14, 24, 23, 83, 84, 94, 93
13, 14, 15, 25, 24, 84, 85, 95, 94
14, 15, 16, 26, 25, 85, 86, 96, 95
15, 16, 17, 27, 26, 86, 87, 97, 96
16, 17, 18, 28, 27, 87, 88, 98, 97
17, 18, 19, 29, 28, 88, 89, 99, 98
18, 19, 20, 30, 29, 89, 90, 100, 99
19, 21, 22, 32, 31, 91, 92, 102, 101
20, 22, 23, 33, 32, 92, 93, 103, 102
21, 23, 24, 34, 33, 93, 94, 104, 103
22, 24, 25, 35, 34, 94, 95, 105, 104
23, 25, 26, 36, 35, 95, 96, 106, 105
24, 26, 27, 37, 36, 96, 97, 107, 106
25, 27, 28, 38, 37, 97, 98, 108, 107
26, 28, 29, 39, 38, 98, 99, 109, 108
27, 29, 30, 40, 39, 99, 100, 110, 109
28, 31, 32, 42, 41, 101, 102, 112, 111
29, 32, 33, 43, 42, 102, 103, 113, 112
30, 33, 34, 44, 43, 103, 104, 114, 113
31, 34, 35, 45, 44, 104, 105, 115, 114
32, 35, 36, 46, 45, 105, 106, 116, 115
33, 36, 37, 47, 46, 106, 107, 117, 116
34, 37, 38, 48, 47, 107, 108, 118, 117
35, 38, 39, 49, 48, 108, 109, 119, 118
36, 39, 40, 50, 49, 109, 110, 120, 119
37, 41, 42, 52, 51, 111, 112, 122, 121
38, 42, 43, 53, 52, 112, 113, 123, 122
39, 43, 44, 54, 53, 113, 114, 124, 123
40, 44, 45, 55, 54, 114, 115, 125, 124
41, 45, 46, 56, 55, 115, 116, 126, 125
42, 46, 47, 57, 56, 116, 117, 127, 126
43, 47, 48, 58, 57, 117, 118, 128, 127
44, 48, 49, 59, 58, 118, 119, 129, 128
45, 49, 50, 60, 59, 119, 120, 130, 129
46, 51, 52, 62, 61, 121, 122, 132, 131
47, 52, 53, 63, 62, 122, 123, 133, 132
48, 53, 54, 64, 63, 123, 124, 134, 133
49, 54, 55, 65, 64, 124, 125, 135, 134
50, 55, 56, 66, 65, 125, 126, 136, 135
51, 56, 57, 67, 66, 126, 127, 137, 136
52, 57, 58, 68, 67, 127, 128, 138, 137
53, 58, 59, 69, 68, 128, 129, 139, 138
54, 59, 60, 70, 69, 129, 130, 140, 139
*ELEMENT, TYPE=C3D8I, ELSET=A_GAP_BLOCK
55, 141, 142, 153, 152, 218, 219, 230, 229
56, 142, 143, 154, 153, 219, 220, 231, 230
57, 143, 144, 155, 154, 220, 221, 232, 231
58, 144, 145, 156, 155, 221, 222, 233, 232
59, 145, 146, 157, 156, 222, 223, 234, 233
60, 146, 147, 158, 157, 223, 224, 235, 234
61, 147, 148, 159, 158, 224, 225, 236, 235
62, 148, 149, 160, 159, 225, 226, 237, 236
63, 149, 150, 161, 160, 226, 227, 238, 237
64, 150, 151, 162, 161, 227, 228, 239, 238
65, 152, 153, 164, 163, 229, 230, 241, 240
66, 153, 154, 165, 164, 230, 231, 242, 241
67, 154, 155, 166, 165, 231, 232, 243, 242
68, 155, 156, 167, 166, 232, 233, 244, 243
69, 156, 157, 168, 167, 233, 234, 245, 244
70, 157, 158, 169, 168, 234, 235, 246, 245
71, 158, 159, 170, 169, 235, 236, 247, 246
72, 159, 160, 171, 170, 236, 237, 248, 247
73, 160, 161, 172, 171, 237, 238, 249, 248
74, 161, 162, 173, 172, 238, 239, 250, 249
75, 163, 164, 175, 174, 240, 241, 252, 251
76, 164, 165, 176, 175, 241, 242, 253, 252
77, 165, 166, 177, 176, 242, 243, 254, 253
78, 166, 167, 178, 177, 243, 244, 255, 254
79, 167, 168, 179, 178, 244, 245, 256, 255
80, 168, 169, 180, 179, 245, 246, 257, 256
81, 169, 170, 181, 180, 246, 247, 258, 257
82, 170, 171, 182, 181, 247, 248, 259, 258
83, 171, 172, 183, 182, 248, 249, 260, 259
84, 172, 173, 184, 183, 249, 250, 261, 260
85, 174, 175, 186, 185, 251, 252, 263, 262
86, 175, 176, 187, 186, 252, 253, 264, 263
87, 176, 177, 188, 187, 253, 254, 265, 264
88, 177, 178, 189, 188, 254, 255, 266, 265
89, 178, 179, 190, 189, 255, 256, 267, 266
90, 179, 180, 191, 190, 256, 257, 268, 267
91, 180, 181, 192, 191, 257, 258, 269, 268
92, 181, 182, 193, 192, 258, 259, 270, 269
93, 182, 183, 194, 193, 259, 260, 271, 270
94, 183, 184, 195, 194, 260, 261, 272, 271
95, 185, 186, 197, 196, 262, 263, 274, 273
96, 186, 187, 198, 197, 263, 264, 275, 274
97, 187, 188, 199, 198, 264, 265, 276, 275
98, 188, 189, 200, 199, 265, 266, 277, 276
99, 189, 190, 201, 200, 266, 267, 278, 277
100, 190, 191, 202, 201, 267, 268, 279, 278
101, 191, 192, 203, 202, 268, 269, 280, 279
102, 192, 193, 204, 203, 269, 270, 281, 280
103, 193, 194, 205, 204, 270, 271, 282, 281
104, 194, 195, 206, 205, 271, 272, 283, 282
105, 196, 197, 208, 207, 273, 274, 285, 284
106, 197, 198, 209, 208, 274, 275, 286, 285
107, 198, 199, 210, 209, 275, 276, 287, 286
108, 199, 200, 211, 210, 276, 277, 288, 287
109, 200, 201, 212, 211, 277, 278, 289, 288
110, 201, 202, 213, 212, 278, 279, 290, 289
111, 202, 203, 214, 213, 279, 280, 291, 290
112, 203, 204, 215, 214, 280, 281, 292, 291
113, 204, 205, 216, 215, 281, 282, 293, 292
114, 205, 206, 217, 216, 282, 283, 294, 293
115, 218, 219, 230, 229, 295, 296, 307, 306
116, 219, 220, 231, 230, 296, 297, 308, 307
117, 220, 221, 232, 231, 297, 298, 309, 308
118, 221, 222, 233, 232, 298, 299, 310, 309
119, 222, 223, 234, 233, 299, 300, 311, 310
120, 223, 224, 235, 234, 300, 301, 312, 311
121, 224, 225, 236, 235, 301, 302, 313, 312
122, 225, 226, 237, 236, 302, 303, 314, 313
123, 226, 227, 238, 237, 303, 304, 315, 314
124, 227, 228, 239, 238, 304, 305, 316, 315
125, 229, 230, 241, 240, 306, 307, 318, 317
126, 230, 231, 242, 241, 307, 308, 319, 318
127, 231, 232, 243, 242, 308, 309, 320, 319
128, 232, 233, 244, 243, 309, 310, 321, 320
129, 233, 234, 245, 244, 310, 311, 322, 321
130, 234, 235, 246, 245, 311, 312, 323, 322
131, 235, 236, 247, 246, 312, 313, 324, 323
132, 236, 237, 248, 247, 313, 314, 325, 324
133, 237, 238, 249, 248, 314, 315, 326, 325
134, 238, 239, 250, 249, 315, 316, 327, 326
135, 240, 241, 252, 251, 317, 318, 329, 328
136, 241, 242, 253, 252, 318, 319, 330, 329
137, 242, 243, 254, 253, 319, 320, 331, 330
138, 243, 244, 255, 254, 320, 321, 332, 331
139, 244, 245, 256, 255, 321, 322, 333, 332
140, 245, 246, 257, 256, 322, 323, 334, 333
141, 246, 247, 258, 257, 323, 324, 335, 334
142, 247, 248, 259, 258, 324, 325, 336, 335
143, 248, 249, 260, 259, 325, 326, 337, 336
144, 249, 250, 261, 260, 326, 327, 338, 337
145, 251, 252, 263, 262, 328, 329, 340, 339
146, 252, 253, 264, 263, 329, 330, 341, 340
147, 253, 254, 265, 264, 330, 331, 342, 341
148, 254, 255, 266, 265, 331, 332, 343, 342
149, 255, 256, 267, 266, 332, 333, 344, 343
150, 256, 257, 268, 267, 333, 334, 345, 344
151, 257, 258, 269, 268, 334, 335, 346, 345
152, 258, 259, 270, 269, 335, 336, 347, 346
153, 259, 260, 271, 270, 336, 337, 348, 347
154, 260, 261, 272, 271, 337, 338, 349, 348
155, 262, 263, 274, 273, 339, 340, 351, 350
156, 263, 264, 275, 274, 340, 341, 352, 351
157, 264, 265, 276, 275, 341, 342, 353, 352
158, 265, 266, 277, 276, 342, 343, 354, 353
159, 266, 267, 278, 277, 343, 344, 355, 354
160, 267, 268, 279, 278, 344, 345, 356, 355
161, 268, 269, 280, 279, 345, 346, 357, 356
162, 269, 270, 281, 280, 346, 347, 358, 357
163, 270, 271, 282, 281, 347, 348, 359, 358
164, 271, 272, 283, 282, 348, 349, 360, 359
165, 273, 274, 285, 284, 350, 351, 362, 361
166, 274, 275, 286, 285, 351, 352, 363, 362
167, 275, 276, 287, 286, 352, 353, 364, 363
168, 276, 277, 288, 287, 353, 354, 365, 364
169, 277, 278, 289, 288, 354, 355, 366, 365
170, 278, 279, 290, 289, 355, 356, 367, 366
171, 279, 280, 291, 290, 356, 357, 368, 367
172, 280, 281, 292, 291, 357, 358, 369, 368
173, 281, 282, 293, 292, 358, 359, 370, 369
174, 282, 283, 294, 293, 359, 360, 371, 370
175, 295, 296, 307, 306, 372, 373, 384, 383
176, 296, 297, 308, 307, 373, 374, 385, 384
177, 297, 298, 309, 308, 374, 375, 386, 385
178, 298, 299, 310, 309, 375, 376, 387, 386
179, 299, 300, 311, 310, 376, 377, 388, 387
180, 300, 301, 312, 311, 377, 378, 389, 388
181, 301, 302, 313, 312, 378, 379, 390, 389
182, 302, 303, 314, 313, 379, 380, 391, 390
183, 303, 304, 315, 314, 380, 381, 392, 391
184, 304, 305, 316, 315, 381, 382, 393, 392
185, 306, 307, 318, 317, 383, 384, 395, 394
186, 307, 308, 319, 318, 384, 385, 396, 395
187, 308, 309, 320, 319, 385, 386, 397, 396
188, 309, 310, 321, 320, 386, 387, 398, 397
189, 310, 311, 322, 321, 387, 388, 399, 398
190, 311, 312, 323, 322, 388, 389, 400, 399
191, 312, 313, 324, 323, 389, 390, 401, 400
192, 313, 314, 325, 324, 390, 391, 402, 401
193, 314, 315, 326, 325, 391, 392, 403, 402
194, 315, 316, 327, 326, 392, 393, 404, 403
195, 317, 318, 329, 328, 394, 395, 406, 405
196, 318, 319, 330, 329, 395, 396, 407, 406
197, 319, 320, 331, 330, 396, 397, 408, 407
198, 320, 321, 332, 331, 397, 398, 409, 408
199, 321, 322, 333, 332, 398, 399, 410, 409
200, 322, 323, 334, 333, 399, 400, 411, 410
201, 323, 324, 335, 334, 400, 401, 412, 411
202, 324, 325, 336, 335, 401, 402, 413, 412
203, 325, 326, 337, 336, 402, 403, 414, 413
204, 326, 327, 338, 337, 403, 404, 415, 414
205, 328, 329, 340, 339, 405, 406, 417, 416
206, 329, 330, 341, 340, 406, 407, 418, 417
207, 330, 331, 342, 341, 407, 408, 419, 418
208, 331, 332, 343, 342, 408, 409, 420, 419
209, 332, 333, 344, 343, 409, 410, 421, 420
210, 333, 334, 345, 344, 410, 411, 422, 421
211, 334, 335, 346, 345, 411, 412, 423, 422
212, 335, 336, 347, 346, 412, 413, 424, 423
213, 336, 337, 348, 347, 413, 414, 425, 424
214, 337, 338, 349, 348, 414, 415, 426, 425
215, 339, 340, 351, 350, 416, 417, 428, 427
216, 340, 341, 352, 351, 417, 418, 429, 428
217, 341, 342, 353, 352, 418, 419, 430, 429
218, 342, 343, 354, 353, 419, 420, 431, 430
219, 343, 344, 355, 354, 420, 421, 432, 431
220, 344, 345, 356, 355, 421, 422, 433, 432
221, 345, 346, 357, 356, 422, 423, 434, 433
222, 346, 347, 358, 357, 423, 424, 435, 434
223, 347, 348, 359, 358, 424, 425, 436, 435
224, 348, 349, 360, 359, 425, 426, 437, 436
225, 350, 351, 362, 361, 427, 428, 439, 438
226, 351, 352, 363, 362, 428, 429, 440, 439
227, 352, 353, 364, 363, 429, 430, 441, 440
228, 353, 354, 365, 364, 430, 431, 442, 441
229, 354, 355, 366, 365, 431, 432, 443, 442
230, 355, 356, 367, 366, 432, 433, 444, 443
231, 356, 357, 368, 367, 433, 434, 445, 444
232, 357, 358, 369, 368, 434, 435, 446, 445
233, 358, 359, 370, 369, 435, 436, 447, 446
234, 359, 360, 371, 370, 436, 437, 448, 447
*ELEMENT, TYPE=C3D8I, ELSET=B_SLIDE_PLATE
235, 449, 450, 460, 459, 519, 520, 530, 529
236, 450, 451, 461, 460, 520, 521, 531, 530
237, 451, 452, 462, 461, 521, 522, 532, 531
238, 452, 453, 463, 462, 522, 523, 533, 532
239, 453, 454, 464, 463, 523, 524, 534, 533
240, 454, 455, 465, 464, 524, 525, 535, 534
241, 455, 456, 466, 465, 525, 526, 536, 535
242, 456, 457, 467, 466, 526, 527, 537, 536
243, 457, 458, 468, 467, 527, 528, 538, 537
244, 459, 460, 470, 469, 529, 530, 540, 539
245, 460, 461, 471, 470, 530, 531, 541, 540
246, 461, 462, 472, 471, 531, 532, 542, 541
247, 462, 463, 473, 472, 532, 533, 543, 542
248, 463, 464, 474, 473, 533, 534, 544, 543
249, 464, 465, 475, 474, 534, 535, 545, 544
250, 465, 466, 476, 475, 535, 536, 546, 545
251, 466, 467, 477, 476, 536, 537, 547, 546
252, 467, 468, 478, 477, 537, 538, 548, 547
253, 469, 470, 480, 479, 539, 540, 550, 549
254, 470, 471, 481, 480, 540, 541, 551, 550
255, 471, 472, 482, 481, 541, 542, 552, 551
256, 472, 473, 483, 482, 542, 543, 553, 552
257, 473, 474, 484, 483, 543, 544, 554, 553
258, 474, 475, 485, 484, 544, 545, 555, 554
259, 475, 476, 486, 485, 545, 546, 556, 555
260, 476, 477, 487, 486, 546, 547, 557, 556
261, 477, 478, 488, 487, 547, 548, 558, 557
262, 479, 480, 490, 489, 549, 550, 560, 559
263, 480, 481, 491, 490, 550, 551, 561, 560
264, 481, 482, 492, 491, 551, 552, 562, 561
265, 482, 483, 493, 492, 552, 553, 563, 562
266, 483, 484, 494, 493, 553, 554, 564, 563
267, 484, 485, 495, 494, 554, 555, 565, 564
268, 485, 486, 496, 495, 555, 556, 566, 565
269, 486, 487, 497, 496, 556, 557, 567, 566
270, 487, 488, 498, 497, 557, 558, 568, 567
271, 489, 490, 500, 499, 559, 560, 570, 569
272, 490, 491, 501, 500, 560, 561, 571, 570
273, 491, 492, 502, 501, 561, 562, 572, 571
274, 492, 493, 503, 502, 562, 563, 573, 572
275, 493, 494, 504, 503, 563, 564, 574, 573
276, 494, 495, 505, 504, 564, 565, 575, 574
277, 495, 496, 506, 505, 565, 566, 576, 575
278, 496, 497, 507, 506, 566, 567, 577, 576
279, 497, 498, 508, 507, 567, 568, 578, 577
280, 499, 500, 510, 509, 569, 570, 580, 579
281, 500, 501, 511, 510, 570, 571, 581, 580
282, 501, 502, 512, 511, 571, 572, 582, 581
283, 502, 503, 513, 512, 572, 573, 583, 582
284, 503, 504, 514, 513, 573, 574, 584, 583
285, 504, 505, 515, 514, 574, 575, 585, 584
286, 505, 506, 516, 515, 575, 576, 586, 585
287, 506, 507, 517, 516, 576, 577, 587, 586
288, 507, 508, 518, 517, 577, 578, 588, 587
*ELEMENT, TYPE=C3D8I, ELSET=B_SLIDE_BLOCK
289, 589, 590, 599, 598, 652, 653, 662, 661
290, 590, 591, 600, 599, 653, 654, 663, 662
291, 591, 592, 601, 600, 654, 655, 664, 663
292, 592, 593, 602, 601, 655, 656, 665, 664
293, 593, 594, 603, 602, 656, 657, 666, 665
294, 594, 595, 604, 603, 657, 658, 667, 666
295, 595, 596, 605, 604, 658, 659, 668, 667
296, 596, 597, 606, 605, 659, 660, 669, 668
297, 598, 599, 608, 607, 661, 662, 671, 670
298, 599, 600, 609, 608, 662, 663, 672, 671
299, 600, 601, 610, 609, 663, 664, 673, 672
300, 601, 602, 611, 610, 664, 665, 674, 673
301, 602, 603, 612, 611, 665, 666, 675, 674
302, 603, 604, 613, 612, 666, 667, 676, 675
303, 604, 605, 614, 613, 667, 668, 677, 676
304, 605, 606, 615, 614, 668, 669, 678, 677
305, 607, 608, 617, 616, 670, 671, 680, 679
306, 608, 609, 618, 617, 671, 672, 681, 680
307, 609, 610, 619, 618, 672, 673, 682, 681
308, 610, 611, 620, 619, 673, 674, 683, 682
309, 611, 612, 621, 620, 674, 675, 684, 683
310, 612, 613, 622, 621, 675, 676, 685, 684
311, 613, 614, 623, 622, 676, 677, 686, 685
312, 614, 615, 624, 623, 677, 678, 687, 686
313, 616, 617, 626, 625, 679, 680, 689, 688
314, 617, 618, 627, 626, 680, 681, 690, 689
315, 618, 619, 628, 627, 681, 682, 691, 690
316, 619, 620, 629, 628, 682, 683, 692, 691
317, 620, 621, 630, 629, 683, 684, 693, 692
318, 621, 622, 631, 630, 684, 685, 694, 693
319, 622, 623, 632, 631, 685, 686, 695, 694
320, 623, 624, 633, 632, 686, 687, 696, 695
321, 625, 626, 635, 634, 688, 689, 698, 697
322, 626, 627, 636, 635, 689, 690, 699, 698
323, 627, 628, 637, 636, 690, 691, 700, 699
324, 628, 629, 638, 637, 691, 692, 701, 700
325, 629, 630, 639, 638, 692, 693, 702, 701
326, 630, 631, 640, 639, 693, 694, 703, 702
327, 631, 632, 641, 640, 694, 695, 704, 703
328, 632, 633, 642, 641, 695, 696, 705, 704
329, 634, 635, 644, 643, 697, 698, 707, 706
330, 635, 636, 645, 644, 698, 699, 708, 707
331, 636, 637, 646, 645, 699, 700, 709, 708
332, 637, 638, 647, 646, 700, 701, 710, 709
333, 638, 639, 648, 647, 701, 702, 711, 710
334, 639, 640, 649, 648, 702, 703, 712, 711
335, 640, 641, 650, 649, 703, 704, 713, 712
336, 641, 642, 651, 650, 704, 705, 714, 713
337, 652, 653, 662, 661, 715, 716, 725, 724
338, 653, 654, 663, 662, 716, 717, 726, 725
339, 654, 655, 664, 663, 717, 718, 727, 726
340, 655, 656, 665, 664, 718, 719, 728, 727
341, 656, 657, 666, 665, 719, 720, 729, 728
342, 657, 658, 667, 666, 720, 721, 730, 729
343, 658, 659, 668, 667, 721, 722, 731, 730
344, 659, 660, 669, 668, 722, 723, 732, 731
345, 661, 662, 671, 670, 724, 725, 734, 733
346, 662, 663, 672, 671, 725, 726, 735, 734
347, 663, 664, 673, 672, 726, 727, 736, 735
348, 664, 665, 674, 673, 727, 728, 737, 736
349, 665, 666, 675, 674, 728, 729, 738, 737
350, 666, 667, 676, 675, 729, 730, 739, 738
351, 667, 668, 677, 676, 730, 731, 740, 739
352, 668, 669, 678, 677, 731, 732, 741, 740
353, 670, 671, 680, 679, 733, 734, 743, 742
354, 671, 672, 681, 680, 734, 735, 744, 743
355, 672, 673, 682, 681, 735, 736, 745, 744
356, 673, 674, 683, 682, 736, 737, 746, 745
357, 674, 675, 684, 683, 737, 738, 747, 746
358, 675, 676, 685, 684, 738, 739, 748, 747
359, 676, 677, 686, 685, 739, 740, 749, 748
360, 677, 678, 687, 686, 740, 741, 750, 749
361, 679, 680, 689, 688, 742, 743, 752, 751
362, 680, 681, 690, 689, 743, 744, 753, 752
363, 681, 682, 691, 690, 744, 745, 754, 753
364, 682, 683, 692, 691, 745, 746, 755, 754
365, 683, 684, 693, 692, 746, 747, 756, 755
366, 684, 685, 694, 693, 747, 748, 757, 756
367, 685, 686, 695, 694, 748, 749, 758, 757
368, 686, 687, 696, 695, 749, 750, 759, 758
369, 688, 689, 698, 697, 751, 752, 761, 760
370, 689, 690, 699, 698, 752, 753, 762, 761
371, 690, 691, 700, 699, 753, 754, 763, 762
372, 691, 692, 701, 700, 754, 755, 764, 763
373, 692, 693, 702, 701, 755, 756, 765, 764
374, 693, 694, 703, 702, 756, 757, 766, 765
375, 694, 695, 704, 703, 757, 758, 767, 766
376, 695, 696, 705, 704, 758, 759, 768, 767
377, 697, 698, 707, 706, 760, 761, 770, 769
378, 698, 699, 708, 707, 761, 762, 771, 770
379, 699, 700, 709, 708, 762, 763, 772, 771
380, 700, 701, 710, 709, 763, 764, 773, 772
381, 701, 702, 711, 710, 764, 765, 774, 773
382, 702, 703, 712, 711, 765, 766, 775, 774
383, 703, 704, 713, 712, 766, 767, 776, 775
384, 704, 705, 714, 713, 767, 768, 777, 776
385, 715, 716, 725, 724, 778, 779, 788, 787
386, 716, 717, 726, 725, 779, 780, 789, 788
387, 717, 718, 727, 726, 780, 781, 790, 789
388, 718, 719, 728, 727, 781, 782, 791, 790
389, 719, 720, 729, 728, 782, 783, 792, 791
390, 720, 721, 730, 729, 783, 784, 793, 792
391, 721, 722, 731, 730, 784, 785, 794, 793
392, 722, 723, 732, 731, 785, 786, 795, 794
393, 724, 725, 734, 733, 787, 788, 797, 796
394, 725, 726, 735, 734, 788, 789, 798, 797
395, 726, 727, 736, 735, 789, 790, 799, 798
396, 727, 728, 737, 736, 790, 791, 800, 799
397, 728, 729, 738, 737, 791, 792, 801, 800
398, 729, 730, 739, 738, 792, 793, 802, 801
399, 730, 731, 740, 739, 793, 794, 803, 802
400, 731, 732, 741, 740, 794, 795, 804, 803
401, 733, 734, 743, 742, 796, 797, 806, 805
402, 734, 735, 744, 743, 797, 798, 807, 806
403, 735, 736, 745, 744, 798, 799, 808, 807
404, 736, 737, 746, 745, 799, 800, 809, 808
405, 737, 738, 747, 746, 800, 801, 810, 809
406, 738, 739, 748, 747, 801, 802, 811, 810
407, 739, 740, 749, 748, 802, 803, 812, 811
408, 740, 741, 750, 749, 803, 804, 813, 812
409, 742, 743, 752, 751, 805, 806, 815, 814
410, 743, 744, 753, 752, 806, 807, 816, 815
411, 744, 745, 754, 753, 807, 808, 817, 816
412, 745, 746, 755, 754, 808, 809, 818, 817
413, 746, 747, 756, 755, 809, 810, 819, 818
414, 747, 748, 757, 756, 810, 811, 820, 819
415, 748, 749, 758, 757, 811, 812, 821, 820
416, 749, 750, 759, 758, 812, 813, 822, 821
417, 751, 752, 761, 760, 814, 815, 824, 823
418, 752, 753, 762, 761, 815, 816, 825, 824
419, 753, 754, 763, 762, 816, 817, 826, 825
420, 754, 755, 764, 763, 817, 818, 827, 826
421, 755, 756, 765, 764, 818, 819, 828, 827
422, 756, 757, 766, 765, 819, 820, 829, 828
423, 757, 758, 767, 766, 820, 821, 830, 829
424, 758, 759, 768, 767, 821, 822, 831, 830
425, 760, 761, 770, 769, 823, 824, 833, 832
426, 761, 762, 771, 770, 824, 825, 834, 833
427, 762, 763, 772, 771, 825, 826, 835, 834
428, 763, 764, 773, 772, 826, 827, 836, 835
429, 764, 765, 774, 773, 827, 828, 837, 836
430, 765, 766, 775, 774, 828, 829, 838, 837
431, 766, 767, 776, 775, 829, 830, 839, 838
432, 767, 768, 777, 776, 830, 831, 840, 839
*ELEMENT, TYPE=C3D8I, ELSET=C_LIFT_PLATE
433, 841, 842, 852, 851, 911, 912, 922, 921
434, 842, 843, 853, 852, 912, 913, 923, 922
435, 843, 844, 854, 853, 913, 914, 924, 923
436, 844, 845, 855, 854, 914, 915, 925, 924
437, 845, 846, 856, 855, 915, 916, 926, 925
438, 846, 847, 857, 856, 916, 917, 927, 926
439, 847, 848, 858, 857, 917, 918, 928, 927
440, 848, 849, 859, 858, 918, 919, 929, 928
441, 849, 850, 860, 859, 919, 920, 930, 929
442, 851, 852, 862, 861, 921, 922, 932, 931
443, 852, 853, 863, 862, 922, 923, 933, 932
444, 853, 854, 864, 863, 923, 924, 934, 933
445, 854, 855, 865, 864, 924, 925, 935, 934
446, 855, 856, 866, 865, 925, 926, 936, 935
447, 856, 857, 867, 866, 926, 927, 937, 936
448, 857, 858, 868, 867, 927, 928, 938, 937
449, 858, 859, 869, 868, 928, 929, 939, 938
450, 859, 860, 870, 869, 929, 930, 940, 939
451, 861, 862, 872, 871, 931, 932, 942, 941
452, 862, 863, 873, 872, 932, 933, 943, 942
453, 863, 864, 874, 873, 933, 934, 944, 943
454, 864, 865, 875, 874, 934, 935, 945, 944
455, 865, 866, 876, 875, 935, 936, 946, 945
456, 866, 867, 877, 876, 936, 937, 947, 946
457, 867, 868, 878, 877, 937, 938, 948, 947
458, 868, 869, 879, 878, 938, 939, 949, 948
459, 869, 870, 880, 879, 939, 940, 950, 949
460, 871, 872, 882, 881, 941, 942, 952, 951
461, 872, 873, 883, 882, 942, 943, 953, 952
462, 873, 874, 884, 883, 943, 944, 954, 953
463, 874, 875, 885, 884, 944, 945, 955, 954
464, 875, 876, 886, 885, 945, 946, 956, 955
465, 876, 877, 887, 886, 946, 947, 957, 956
466, 877, 878, 888, 887, 947, 948, 958, 957
467, 878, 879, 889, 888, 948, 949, 959, 958
468, 879, 880, 890, 889, 949, 950, 960, 959
469, 881, 882, 892, 891, 951, 952, 962, 961
470, 882, 883, 893, 892, 952, 953, 963, 962
471, 883, 884, 894, 893, 953, 954, 964, 963
472, 884, 885, 895, 894, 954, 955, 965, 964
473, 885, 886, 896, 895, 955, 956, 966, 965
474, 886, 887, 897, 896, 956, 957, 967, 966
475, 887, 888, 898, 897, 957, 958, 968, 967
476, 888, 889, 899, 898, 958, 959, 969, 968
477, 889, 890, 900, 899, 959, 960, 970, 969
478, 891, 892, 902, 901, 961, 962, 972, 971
479, 892, 893, 903, 902, 962, 963, 973, 972
480, 893, 894, 904, 903, 963, 964, 974, 973
481, 894, 895, 905, 904, 964, 965, 975, 974
482, 895, 896, 906, 905, 965, 966, 976, 975
483, 896, 897, 907, 906, 966, 967, 977, 976
484, 897, 898, 908, 907, 967, 968, 978, 977
485, 898, 899, 909, 908, 968, 969, 979, 978
486, 899, 900, 910, 909, 969, 970, 980, 979
*ELEMENT, TYPE=C3D8I, ELSET=C_LIFT_BLOCK
487, 981, 982, 993, 992, 1058, 1059, 1070, 1069
488, 982, 983, 994, 993, 1059, 1060, 1071, 1070
489, 983, 984, 995, 994, 1060, 1061, 1072, 1071
490, 984, 985, 996, 995, 1061, 1062, 1073, 1072
491, 985, 986, 997, 996, 1062, 1063, 1074, 1073
492, 986, 987, 998, 997, 1063, 1064, 1075, 1074
493, 987, 988, 999, 998, 1064, 1065, 1076, 1075
494, 988, 989, 1000, 999, 1065, 1066, 1077, 1076
495, 989, 990, 1001, 1000, 1066, 1067, 1078, 1077
496, 990, 991, 1002, 1001, 1067, 1068, 1079, 1078
497, 992, 993, 1004, 1003, 1069, 1070, 1081, 1080
498, 993, 994, 1005, 1004, 1070, 1071, 1082, 1081
499, 994, 995, 1006, 1005, 1071, 1072, 1083, 1082
500, 995, 996, 1007, 1006, 1072, 1073, 1084, 1083
501, 996, 997, 1008, 1007, 1073, 1074, 1085, 1084
502, 997, 998, 1009, 1008, 1074, 1075, 1086, 1085
503, 998, 999, 1010, 1009, 1075, 1076, 1087, 1086
504, 999, 1000, 1011, 1010, 1076, 1077, 1088, 1087
505, 1000, 1001, 1012, 1011, 1077, 1078, 1089, 1088
506, 1001, 1002, 1013, 1012, 1078, 1079, 1090, 1089
507, 1003, 1004, 1015, 1014, 1080, 1081, 1092, 1091
508, 1004, 1005, 1016, 1015, 1081, 1082, 1093, 1092
509, 1005, 1006, 1017, 1016, 1082, 1083, 1094, 1093
510, 1006, 1007, 1018, 1017, 1083, 1084, 1095, 1094
511, 1007, 1008, 1019, 1018, 1084, 1085, 1096, 1095
512, 1008, 1009, 1020, 1019, 1085, 1086, 1097, 1096
513, 1009, 1010, 1021, 1020, 1086, 1087, 1098, 1097
514, 1010, 1011, 1022, 1021, 1087, 1088, 1099, 1098
515, 1011, 1012, 1023, 1022, 1088, 1089, 1100, 1099
516, 1012, 1013, 1024, 1023, 1089, 1090, 1101, 1100
517, 1014, 1015, 1026, 1025, 1091, 1092, 1103, 1102
518, 1015, 1016, 1027, 1026, 1092, 1093, 1104, 1103
519, 1016, 1017, 1028, 1027, 1093, 1094, 1105, 1104
520, 1017, 1018, 1029, 1028, 1094, 1095, 1106, 1105
521, 1018, 1019, 1030, 1029, 1095, 1096, 1107, 1106
522, 1019, 1020, 1031, 1030, 1096, 1097, 1108, 1107
523, 1020, 1021, 1032, 1031, 1097, 1098, 1109, 1108
524, 1021, 1022, 1033, 1032, 1098, 1099, 1110, 1109
525, 1022, 1023, 1034, 1033, 1099, 1100, 1111, 1110
526, 1023, 1024, 1035, 1034, 1100, 1101, 1112, 1111
527, 1025, 1026, 1037, 1036, 1102, 1103, 1114, 1113
528, 1026, 1027, 1038, 1037, 1103, 1104, 1115, 1114
529, 1027, 1028, 1039, 1038, 1104, 1105, 1116, 1115
530, 1028, 1029, 1040, 1039, 1105, 1106, 1117, 1116
531, 1029, 1030, 1041, 1040, 1106, 1107, 1118, 1117
532, 1030, 1031, 1042, 1041, 1107, 1108, 1119, 1118
533, 1031, 1032, 1043, 1042, 1108, 1109, 1120, 1119
534, 1032, 1033, 1044, 1043, 1109, 1110, 1121, 1120
535, 1033, 1034, 1045, 1044, 1110, 1111, 1122, 1121
536, 1034, 1035, 1046, 1045, 1111, 1112, 1123, 1122
537, 1036, 1037, 1048, 1047, 1113, 1114, 1125, 1124
538, 1037, 1038, 1049, 1048, 1114, 1115, 1126, 1125
539, 1038, 1039, 1050, 1049, 1115, 1116, 1127, 1126
540, 1039, 1040, 1051, 1050, 1116, 1117, 1128, 1127
541, 1040, 1041, 1052, 1051, 1117, 1118, 1129, 1128
542, 1041, 1042, 1053, 1052, 1118, 1119, 1130, 1129
543, 1042, 1043, 1054, 1053, 1119, 1120, 1131, 1130
544, 1043, 1044, 1055, 1054, 1120, 1121, 1132, 1131
545, 1044, 1045, 1056, 1055, 1121, 1122, 1133, 1132
546, 1045, 1046, 1057, 1056, 1122, 1123, 1134, 1133
547, 1058, 1059, 1070, 1069, 1135, 1136, 1147, 1146
548, 1059, 1060, 1071, 1070, 1136, 1137, 1148, 1147
549, 1060, 1061, 1072, 1071, 1137, 1138, 1149, 1148
550, 1061, 1062, 1073, 1072, 1138, 1139, 1150, 1149
551, 1062, 1063, 1074, 1073, 1139, 1140, 1151, 1150
552, 1063, 1064, 1075, 1074, 1140, 1141, 1152, 1151
553, 1064, 1065, 1076, 1075, 1141, 1142, 1153, 1152
554, 1065, 1066, 1077, 1076, 1142, 1143, 1154, 1153
555, 1066, 1067, 1078, 1077, 1143, 1144, 1155, 1154
556, 1067, 1068, 1079, 1078, 1144, 1145, 1156, 1155
557, 1069, 1070, 1081, 1080, 1146, 1147, 1158, 1157
558, 1070, 1071, 1082, 1081, 1147, 1148, 1159, 1158
559, 1071, 1072, 1083, 1082, 1148, 1149, 1160, 1159
560, 1072, 1073, 1084, 1083, 1149, 1150, 1161, 1160
561, 1073, 1074, 1085, 1084, 1150, 1151, 1162, 1161
562, 1074, 1075, 1086, 1085, 1151, 1152, 1163, 1162
563, 1075, 1076, 1087, 1086, 1152, 1153, 1164, 1163
564, 1076, 1077, 1088, 1087, 1153, 1154, 1165, 1164
565, 1077, 1078, 1089, 1088, 1154, 1155, 1166, 1165
566, 1078, 1079, 1090, 1089, 1155, 1156, 1167, 1166
567, 1080, 1081, 1092, 1091, 1157, 1158, 1169, 1168
568, 1081, 1082, 1093, 1092, 1158, 1159, 1170, 1169
569, 1082, 1083, 1094, 1093, 1159, 1160, 1171, 1170
570, 1083, 1084, 1095, 1094, 1160, 1161, 1172, 1171
571, 1084, 1085, 1096, 1095, 1161, 1162, 1173, 1172
572, 1085, 1086, 1097, 1096, 1162, 1163, 1174, 1173
573, 1086, 1087, 1098, 1097, 1163, 1164, 1175, 1174
574, 1087, 1088, 1099, 1098, 1164, 1165, 1176, 1175
575, 1088, 1089, 1100, 1099, 1165, 1166, 1177, 1176
576, 1089, 1090, 1101, 1100, 1166, 1167, 1178, 1177
577, 1091, 1092, 1103, 1102, 1168, 1169, 1180, 1179
578, 1092, 1093, 1104, 1103, 1169, 1170, 1181, 1180
579, 1093, 1094, 1105, 1104, 1170, 1171, 1182, 1181
580, 1094, 1095, 1106, 1105, 1171, 1172, 1183, 1182
581, 1095, 1096, 1107, 1106, 1172, 1173, 1184, 1183
582, 1096, 1097, 1108, 1107, 1173, 1174, 1185, 1184
583, 1097, 1098, 1109, 1108, 1174, 1175, 1186, 1185
584, 1098, 1099, 1110, 1109, 1175, 1176, 1187, 1186
585, 1099, 1100, 1111, 1110, 1176, 1177, 1188, 1187
586, 1100, 1101, 1112, 1111, 1177, 1178, 1189, 1188
587, 1102, 1103, 1114, 1113, 1179, 1180, 1191, 1190
588, 1103, 1104, 1115, 1114, 1180, 1181, 1192, 1191
589, 1104, 1105, 1116, 1115, 1181, 1182, 1193, 1192
590, 1105, 1106, 1117, 1116, 1182, 1183, 1194, 1193
591, 1106, 1107, 1118, 1117, 1183, 1184, 1195, 1194
592, 1107, 1108, 1119, 1118, 1184, 1185, 1196, 1195
593, 1108, 1109, 1120, 1119, 1185, 1186, 1197, 1196
594, 1109, 1110, 1121, 1120, 1186, 1187, 1198, 1197
595, 1110, 1111, 1122, 1121, 1187, 1188, 1199, 1198
596, 1111, 1112, 1123, 1122, 1188, 1189, 1200, 1199
597, 1113, 1114, 1125, 1124, 1190, 1191, 1202, 1201
598, 1114, 1115, 1126, 1125, 1191, 1192, 1203, 1202
599, 1115, 1116, 1127, 1126, 1192, 1193, 1204, 1203
600, 1116, 1117, 1128, 1127, 1193, 1194, 1205, 1204
601, 1117, 1118, 1129, 1128, 1194, 1195, 1206, 1205
602, 1118, 1119, 1130, 1129, 1195, 1196, 1207, 1206
603, 1119, 1120, 1131, 1130, 1196, 1197, 1208, 1207
604, 1120, 1121, 1132, 1131, 1197, 1198, 1209, 1208
605, 1121, 1122, 1133, 1132, 1198, 1199, 1210, 1209
606, 1122, 1123, 1134, 1133, 1199, 1200, 1211, 1210
607, 1135, 1136, 1147, 1146, 1212, 1213, 1224, 1223
608, 1136, 1137, 1148, 1147, 1213, 1214, 1225, 1224
609, 1137, 1138, 1149, 1148, 1214, 1215, 1226, 1225
610, 1138, 1139, 1150, 1149, 1215, 1216, 1227, 1226
611, 1139, 1140, 1151, 1150, 1216, 1217, 1228, 1227
612, 1140, 1141, 1152, 1151, 1217, 1218, 1229, 1228
613, 1141, 1142, 1153, 1152, 1218, 1219, 1230, 1229
614, 1142, 1143, 1154, 1153, 1219, 1220, 1231, 1230
615, 1143, 1144, 1155, 1154, 1220, 1221, 1232, 1231
616, 1144, 1145, 1156, 1155, 1221, 1222, 1233, 1232
617, 1146, 1147, 1158, 1157, 1223, 1224, 1235, 1234
618, 1147, 1148, 1159, 1158, 1224, 1225, 1236, 1235
619, 1148, 1149, 1160, 1159, 1225, 1226, 1237, 1236
620, 1149, 1150, 1161, 1160, 1226, 1227, 1238, 1237
621, 1150, 1151, 1162, 1161, 1227, 1228, 1239, 1238
622, 1151, 1152, 1163, 1162, 1228, 1229, 1240, 1239
623, 1152, 1153, 1164, 1163, 1229, 1230, 1241, 1240
624, 1153, 1154, 1165, 1164, 1230, 1231, 1242, 1241
625, 1154, 1155, 1166, 1165, 1231, 1232, 1243, 1242
626, 1155, 1156, 1167, 1166, 1232, 1233, 1244, 1243
627, 1157, 1158, 1169, 1168, 1234, 1235, 1246, 1245
628, 1158, 1159, 1170, 1169, 1235, 1236, 1247, 1246
629, 1159, 1160, 1171, 1170, 1236, 1237, 1248, 1247
630, 1160, 1161, 1172, 1171, 1237, 1238, 1249, 1248
631, 1161, 1162, 1173, 1172, 1238, 1239, 1250, 1249
632, 1162, 1163, 1174, 1173, 1239, 1240, 1251, 1250
633, 1163, 1164, 1175, 1174, 1240, 1241, 1252, 1251
634, 1164, 1165, 1176, 1175, 1241, 1242, 1253, 1252
635, 1165, 1166, 1177, 1176, 1242, 1243, 1254, 1253
636, 1166, 1167, 1178, 1177, 1243, 1244, 1255, 1254
637, 1168, 1169, 1180, 1179, 1245, 1246, 1257, 1256
638, 1169, 1170, 1181, 1180, 1246, 1247, 1258, 1257
639, 1170, 1171, 1182, 1181, 1247, 1248, 1259, 1258
640, 1171, 1172, 1183, 1182, 1248, 1249, 1260, 1259
641, 1172, 1173, 1184, 1183, 1249, 1250, 1261, 1260
642, 1173, 1174, 1185, 1184, 1250, 1251, 1262, 1261
643, 1174, 1175, 1186, 1185, 1251, 1252, 1263, 1262
644, 1175, 1176, 1187, 1186, 1252, 1253, 1264, 1263
645, 1176, 1177, 1188, 1187, 1253, 1254, 1265, 1264
646, 1177, 1178, 1189, 1188, 1254, 1255, 1266, 1265
647, 1179, 1180, 1191, 1190, 1256, 1257, 1268, 1267
648, 1180, 1181, 1192, 1191, 1257, 1258, 1269, 1268
649, 1181, 1182, 1193, 1192, 1258, 1259, 1270, 1269
650, 1182, 1183, 1194, 1193, 1259, 1260, 1271, 1270
651, 1183, 1184, 1195, 1194, 1260, 1261, 1272, 1271
652, 1184, 1185, 1196, 1195, 1261, 1262, 1273, 1272
653, 1185, 1186, 1197, 1196, 1262, 1263, 1274, 1273
654, 1186, 1187, 1198, 1197, 1263, 1264, 1275, 1274
655, 1187, 1188, 1199, 1198, 1264, 1265, 1276, 1275
656, 1188, 1189, 1200, 1199, 1265, 1266, 1277, 1276
657, 1190, 1191, 1202, 1201, 1267, 1268, 1279, 1278
658, 1191, 1192, 1203, 1202, 1268, 1269, 1280, 1279
659, 1192, 1193, 1204, 1203, 1269, 1270, 1281, 1280
660, 1193, 1194, 1205, 1204, 1270, 1271, 1282, 1281
661, 1194, 1195, 1206, 1205, 1271, 1272, 1283, 1282
662, 1195, 1196, 1207, 1206, 1272, 1273, 1284, 1283
663, 1196, 1197, 1208, 1207, 1273, 1274, 1285, 1284
664, 1197, 1198, 1209, 1208, 1274, 1275, 1286, 1285
665, 1198, 1199, 1210, 1209, 1275, 1276, 1287, 1286
666, 1199, 1200, 1211, 1210, 1276, 1277, 1288, 1287
*ELEMENT, TYPE=C3D8I, ELSET=D_LAM_BOTTOM
667, 1291, 1292, 1308, 1307, 1339, 1340, 1356, 1355
668, 1292, 1293, 1309, 1308, 1340, 1341, 1357, 1356
669, 1293, 1294, 1310, 1309, 1341, 1342, 1358, 1357
670, 1294, 1295, 1311, 1310, 1342, 1343, 1359, 1358
671, 1295, 1296, 1312, 1311, 1343, 1344, 1360, 1359
672, 1296, 1297, 1313, 1312, 1344, 1345, 1361, 1360
673, 1297, 1298, 1314, 1313, 1345, 1346, 1362, 1361
674, 1298, 1299, 1315, 1314, 1346, 1347, 1363, 1362
675, 1299, 1300, 1316, 1315, 1347, 1348, 1364, 1363
676, 1300, 1301, 1317, 1316, 1348, 1349, 1365, 1364
677, 1301, 1302, 1318, 1317, 1349, 1350, 1366, 1365
678, 1302, 1303, 1319, 1318, 1350, 1351, 1367, 1366
679, 1303, 1304, 1320, 1319, 1351, 1352, 1368, 1367
680, 1304, 1305, 1321, 1320, 1352, 1353, 1369, 1368
681, 1305, 1306, 1322, 1321, 1353, 1354, 1370, 1369
682, 1307, 1308, 1324, 1323, 1355, 1356, 1372, 1371
683, 1308, 1309, 1325, 1324, 1356, 1357, 1373, 1372
684, 1309, 1310, 1326, 1325, 1357, 1358, 1374, 1373
685, 1310, 1311, 1327, 1326, 1358, 1359, 1375, 1374
686, 1311, 1312, 1328, 1327, 1359, 1360, 1376, 1375
687, 1312, 1313, 1329, 1328, 1360, 1361, 1377, 1376
688, 1313, 1314, 1330, 1329, 1361, 1362, 1378, 1377
689, 1314, 1315, 1331, 1330, 1362, 1363, 1379, 1378
690, 1315, 1316, 1332, 1331, 1363, 1364, 1380, 1379
691, 1316, 1317, 1333, 1332, 1364, 1365, 1381, 1380
692, 1317, 1318, 1334, 1333, 1365, 1366, 1382, 1381
693, 1318, 1319, 1335, 1334, 1366, 1367, 1383, 1382
694, 1319, 1320, 1336, 1335, 1367, 1368, 1384, 1383
695, 1320, 1321, 1337, 1336, 1368, 1369, 1385, 1384
696, 1321, 1322, 1338, 1337, 1369, 1370, 1386, 1385
*ELEMENT, TYPE=C3D8I, ELSET=D_LAM_TOP
697, 1387, 1388, 1413, 1412, 1487, 1488, 1513, 1512
698, 1388, 1389, 1414, 1413, 1488, 1489, 1514, 1513
699, 1389, 1390, 1415, 1414, 1489, 1490, 1515, 1514
700, 1390, 1391, 1416, 1415, 1490, 1491, 1516, 1515
701, 1391, 1392, 1417, 1416, 1491, 1492, 1517, 1516
702, 1392, 1393, 1418, 1417, 1492, 1493, 1518, 1517
703, 1393, 1394, 1419, 1418, 1493, 1494, 1519, 1518
704, 1394, 1395, 1420, 1419, 1494, 1495, 1520, 1519
705, 1395, 1396, 1421, 1420, 1495, 1496, 1521, 1520
706, 1396, 1397, 1422, 1421, 1496, 1497, 1522, 1521
707, 1397, 1398, 1423, 1422, 1497, 1498, 1523, 1522
708, 1398, 1399, 1424, 1423, 1498, 1499, 1524, 1523
709, 1399, 1400, 1425, 1424, 1499, 1500, 1525, 1524
710, 1400, 1401, 1426, 1425, 1500, 1501, 1526, 1525
711, 1401, 1402, 1427, 1426, 1501, 1502, 1527, 1526
712, 1402, 1403, 1428, 1427, 1502, 1503, 1528, 1527
713, 1403, 1404, 1429, 1428, 1503, 1504, 1529, 1528
714, 1404, 1405, 1430, 1429, 1504, 1505, 1530, 1529
715, 1405, 1406, 1431, 1430, 1505, 1506, 1531, 1530
716, 1406, 1407, 1432, 1431, 1506, 1507, 1532, 1531
717, 1407, 1408, 1433, 1432, 1507, 1508, 1533, 1532
718, 1408, 1409, 1434, 1433, 1508, 1509, 1534, 1533
719, 1409, 1410, 1435, 1434, 1509, 1510, 1535, 1534
720, 1410, 1411, 1436, 1435, 1510, 1511, 1536, 1535
721, 1412, 1413, 1438, 1437, 1512, 1513, 1538, 1537
722, 1413, 1414, 1439, 1438, 1513, 1514, 1539, 1538
723, 1414, 1415, 1440, 1439, 1514, 1515, 1540, 1539
724, 1415, 1416, 1441, 1440, 1515, 1516, 1541, 1540
725, 1416, 1417, 1442, 1441, 1516, 1517, 1542, 1541
726, 1417, 1418, 1443, 1442, 1517, 1518, 1543, 1542
727, 1418, 1419, 1444, 1443, 1518, 1519, 1544, 1543
728, 1419, 1420, 1445, 1444, 1519, 1520, 1545, 1544
729, 1420, 1421, 1446, 1445, 1520, 1521, 1546, 1545
730, 1421, 1422, 1447, 1446, 1521, 1522, 1547, 1546
731, 1422, 1423, 1448, 1447, 1522, 1523, 1548, 1547
732, 1423, 1424, 1449, 1448, 1523, 1524, 1549, 1548
733, 1424, 1425, 1450, 1449, 1524, 1525, 1550, 1549
734, 1425, 1426, 1451, 1450, 1525, 1526, 1551, 1550
735, 1426, 1427, 1452, 1451, 1526, 1527, 1552, 1551
736, 1427, 1428, 1453, 1452, 1527, 1528, 1553, 1552
737, 1428, 1429, 1454, 1453, 1528, 1529, 1554, 1553
738, 1429, 1430, 1455, 1454, 1529, 1530, 1555, 1554
739, 1430, 1431, 1456, 1455, 1530, 1531, 1556, 1555
740, 1431, 1432, 1457, 1456, 1531, 1532, 1557, 1556
741, 1432, 1433, 1458, 1457, 1532, 1533, 1558, 1557
742, 1433, 1434, 1459, 1458, 1533, 1534, 1559, 1558
743, 1434, 1435, 1460, 1459, 1534, 1535, 1560, 1559
744, 1435, 1436, 1461, 1460, 1535, 1536, 1561, 1560
745, 1437, 1438, 1463, 1462, 1537, 1538, 1563, 1562
746, 1438, 1439, 1464, 1463, 1538, 1539, 1564, 1563
747, 1439, 1440, 1465, 1464, 1539, 1540, 1565, 1564
748, 1440, 1441, 1466, 1465, 1540, 1541, 1566, 1565
749, 1441, 1442, 1467, 1466, 1541, 1542, 1567, 1566
750, 1442, 1443, 1468, 1467, 1542, 1543, 1568, 1567
751, 1443, 1444, 1469, 1468, 1543, 1544, 1569, 1568
752, 1444, 1445, 1470, 1469, 1544, 1545, 1570, 1569
753, 1445, 1446, 1471, 1470, 1545, 1546, 1571, 1570
754, 1446, 1447, 1472, 1471, 1546, 1547, 1572, 1571
755, 1447, 1448, 1473, 1472, 1547, 1548, 1573, 1572
756, 1448, 1449, 1474, 1473, 1548, 1549, 1574, 1573
757, 1449, 1450, 1475, 1474, 1549, 1550, 1575, 1574
758, 1450, 1451, 1476, 1475, 1550, 1551, 1576, 1575
759, 1451, 1452, 1477, 1476, 1551, 1552, 1577, 1576
760, 1452, 1453, 1478, 1477, 1552, 1553, 1578, 1577
761, 1453, 1454, 1479, 1478, 1553, 1554, 1579, 1578
762, 1454, 1455, 1480, 1479, 1554, 1555, 1580, 1579
763, 1455, 1456, 1481, 1480, 1555, 1556, 1581, 1580
764, 1456, 1457, 1482, 1481, 1556, 1557, 1582, 1581
765, 1457, 1458, 1483, 1482, 1557, 1558, 1583, 1582
766, 1458, 1459, 1484, 1483, 1558, 1559, 1584, 1583
767, 1459, 1460, 1485, 1484, 1559, 1560, 1585, 1584
768, 1460, 1461, 1486, 1485, 1560, 1561, 1586, 1585
*ELEMENT, TYPE=C3D8I, ELSET=E_TIE_BASE
769, 1587, 1588, 1595, 1594, 1622, 1623, 1630, 1629
770, 1588, 1589, 1596, 1595, 1623, 1624, 1631, 1630
771, 1589, 1590, 1597, 1596, 1624, 1625, 1632, 1631
772, 1590, 1591, 1598, 1597, 1625, 1626, 1633, 1632
773, 1591, 1592, 1599, 1598, 1626, 1627, 1634, 1633
774, 1592, 1593, 1600, 1599, 1627, 1628, 1635, 1634
775, 1594, 1595, 1602, 1601, 1629, 1630, 1637, 1636
776, 1595, 1596, 1603, 1602, 1630, 1631, 1638, 1637
777, 1596, 1597, 1604, 1603, 1631, 1632, 1639, 1638
778, 1597, 1598, 1605, 1604, 1632, 1633, 1640, 1639
779, 1598, 1599, 1606, 1605, 1633, 1634, 1641, 1640
780, 1599, 1600, 1607, 1606, 1634, 1635, 1642, 1641
781, 1601, 1602, 1609, 1608, 1636, 1637, 1644, 1643
782, 1602, 1603, 1610, 1609, 1637, 1638, 1645, 1644
783, 1603, 1604, 1611, 1610, 1638, 1639, 1646, 1645
784, 1604, 1605, 1612, 1611, 1639, 1640, 1647, 1646
785, 1605, 1606, 1613, 1612, 1640, 1641, 1648, 1647
786, 1606, 1607, 1614, 1613, 1641, 1642, 1649, 1648
787, 1608, 1609, 1616, 1615, 1643, 1644, 1651, 1650
788, 1609, 1610, 1617, 1616, 1644, 1645, 1652, 1651
789, 1610, 1611, 1618, 1617, 1645, 1646, 1653, 1652
790, 1611, 1612, 1619, 1618, 1646, 1647, 1654, 1653
791, 1612, 1613, 1620, 1619, 1647, 1648, 1655, 1654
792, 1613, 1614, 1621, 1620, 1648, 1649, 1656, 1655
793, 1622, 1623, 1630, 1629, 1657, 1658, 1665, 1664
794, 1623, 1624, 1631, 1630, 1658, 1659, 1666, 1665
795, 1624, 1625, 1632, 1631, 1659, 1660, 1667, 1666
796, 1625, 1626, 1633, 1632, 1660, 1661, 1668, 1667
797, 1626, 1627, 1634, 1633, 1661, 1662, 1669, 1668
798, 1627, 1628, 1635, 1634, 1662, 1663, 1670, 1669
799, 1629, 1630, 1637, 1636, 1664, 1665, 1672, 1671
800, 1630, 1631, 1638, 1637, 1665, 1666, 1673, 1672
801, 1631, 1632, 1639, 1638, 1666, 1667, 1674, 1673
802, 1632, 1633, 1640, 1639, 1667, 1668, 1675, 1674
803, 1633, 1634, 1641, 1640, 1668, 1669, 1676, 1675
804, 1634, 1635, 1642, 1641, 1669, 1670, 1677, 1676
805, 1636, 1637, 1644, 1643, 1671, 1672, 1679, 1678
806, 1637, 1638, 1645, 1644, 1672, 1673, 1680, 1679
807, 1638, 1639, 1646, 1645, 1673, 1674, 1681, 1680
808, 1639, 1640, 1647, 1646, 1674, 1675, 1682, 1681
809, 1640, 1641, 1648, 1647, 1675, 1676, 1683, 1682
810, 1641, 1642, 1649, 1648, 1676, 1677, 1684, 1683
811, 1643, 1644, 1651, 1650, 1678, 1679, 1686, 1685
812, 1644, 1645, 1652, 1651, 1679, 1680, 1687, 1686
813, 1645, 1646, 1653, 1652, 1680, 1681, 1688, 1687
814, 1646, 1647, 1654, 1653, 1681, 1682, 1689, 1688
815, 1647, 1648, 1655, 1654, 1682, 1683, 1690, 1689
816, 1648, 1649, 1656, 1655, 1683, 1684, 1691, 1690
*ELEMENT, TYPE=C3D8I, ELSET=E_TIE_BLOCK
817, 1692, 1693, 1703, 1702, 1752, 1753, 1763, 1762
818, 1693, 1694, 1704, 1703, 1753, 1754, 1764, 1763
819, 1694, 1695, 1705, 1704, 1754, 1755, 1765, 1764
820, 1695, 1696, 1706, 1705, 1755, 1756, 1766, 1765
821, 1696, 1697, 1707, 1706, 1756, 1757, 1767, 1766
822, 1697, 1698, 1708, 1707, 1757, 1758, 1768, 1767
823, 1698, 1699, 1709, 1708, 1758, 1759, 1769, 1768
824, 1699, 1700, 1710, 1709, 1759, 1760, 1770, 1769
825, 1700, 1701, 1711, 1710, 1760, 1761, 1771, 1770
826, 1702, 1703, 1713, 1712, 1762, 1763, 1773, 1772
827, 1703, 1704, 1714, 1713, 1763, 1764, 1774, 1773
828, 1704, 1705, 1715, 1714, 1764, 1765, 1775, 1774
829, 1705, 1706, 1716, 1715, 1765, 1766, 1776, 1775
830, 1706, 1707, 1717, 1716, 1766, 1767, 1777, 1776
831, 1707, 1708, 1718, 1717, 1767, 1768, 1778, 1777
832, 1708, 1709, 1719, 1718, 1768, 1769, 1779, 1778
833, 1709, 1710, 1720, 1719, 1769, 1770, 1780, 1779
834, 1710, 1711, 1721, 1720, 1770, 1771, 1781, 1780
835, 1712, 1713, 1723, 1722, 1772, 1773, 1783, 1782
836, 1713, 1714, 1724, 1723, 1773, 1774, 1784, 1783
837, 1714, 1715, 1725, 1724, 1774, 1775, 1785, 1784
838, 1715, 1716, 1726, 1725, 1775, 1776, 1786, 1785
839, 1716, 1717, 1727, 1726, 1776, 1777, 1787, 1786
840, 1717, 1718, 1728, 1727, 1777, 1778, 1788, 1787
841, 1718, 1719, 1729, 1728, 1778, 1779, 1789, 1788
842, 1719, 1720, 1730, 1729, 1779, 1780, 1790, 1789
843, 1720, 1721, 1731, 1730, 1780, 1781, 1791, 1790
844, 1722, 1723, 1733, 1732, 1782, 1783, 1793, 1792
845, 1723, 1724, 1734, 1733, 1783, 1784, 1794, 1793
846, 1724, 1725, 1735, 1734, 1784, 1785, 1795, 1794
847, 1725, 1726, 1736, 1735, 1785, 1786, 1796, 1795
848, 1726, 1727, 1737, 1736, 1786, 1787, 1797, 1796
849, 1727, 1728, 1738, 1737, 1787, 1788, 1798, 1797
850, 1728, 1729, 1739, 1738, 1788, 1789, 1799, 1798
851, 1729, 1730, 1740, 1739, 1789, 1790, 1800, 1799
852, 1730, 1731, 1741, 1740, 1790, 1791, 1801, 1800
853, 1732, 1733, 1743, 1742, 1792, 1793, 1803, 1802
854, 1733, 1734, 1744, 1743, 1793, 1794, 1804, 1803
855, 1734, 1735, 1745, 1744, 1794, 1795, 1805, 1804
856, 1735, 1736, 1746, 1745, 1795, 1796, 1806, 1805
857, 1736, 1737, 1747, 1746, 1796, 1797, 1807, 1806
858, 1737, 1738, 1748, 1747, 1797, 1798, 1808, 1807
859, 1738, 1739, 1749, 1748, 1798, 1799, 1809, 1808
860, 1739, 1740, 1750, 1749, 1799, 1800, 1810, 1809
861, 1740, 1741, 1751, 1750, 1800, 1801, 1811, 1810
862, 1752, 1753, 1763, 1762, 1812, 1813, 1823, 1822
863, 1753, 1754, 1764, 1763, 1813, 1814, 1824, 1823
864, 1754, 1755, 1765, 1764, 1814, 1815, 1825, 1824
865, 1755, 1756, 1766, 1765, 1815, 1816, 1826, 1825
866, 1756, 1757, 1767, 1766, 1816, 1817, 1827, 1826
867, 1757, 1758, 1768, 1767, 1817, 1818, 1828, 1827
868, 1758, 1759, 1769, 1768, 1818, 1819, 1829, 1828
869, 1759, 1760, 1770, 1769, 1819, 1820, 1830, 1829
870, 1760, 1761, 1771, 1770, 1820, 1821, 1831, 1830
871, 1762, 1763, 1773, 1772, 1822, 1823, 1833, 1832
872, 1763, 1764, 1774, 1773, 1823, 1824, 1834, 1833
873, 1764, 1765, 1775, 1774, 1824, 1825, 1835, 1834
874, 1765, 1766, 1776, 1775, 1825, 1826, 1836, 1835
875, 1766, 1767, 1777, 1776, 1826, 1827, 1837, 1836
876, 1767, 1768, 1778, 1777, 1827, 1828, 1838, 1837
877, 1768, 1769, 1779, 1778, 1828, 1829, 1839, 1838
878, 1769, 1770, 1780, 1779, 1829, 1830, 1840, 1839
879, 1770, 1771, 1781, 1780, 1830, 1831, 1841, 1840
880, 1772, 1773, 1783, 1782, 1832, 1833, 1843, 1842
881, 1773, 1774, 1784, 1783, 1833, 1834, 1844, 1843
882, 1774, 1775, 1785, 1784, 1834, 1835, 1845, 1844
883, 1775, 1776, 1786, 1785, 1835, 1836, 1846, 1845
884, 1776, 1777, 1787, 1786, 1836, 1837, 1847, 1846
885, 1777, 1778, 1788, 1787, 1837, 1838, 1848, 1847
886, 1778, 1779, 1789, 1788, 1838, 1839, 1849, 1848
887, 1779, 1780, 1790, 1789, 1839, 1840, 1850, 1849
888, 1780, 1781, 1791, 1790, 1840, 1841, 1851, 1850
889, 1782, 1783, 1793, 1792, 1842, 1843, 1853, 1852
890, 1783, 1784, 1794, 1793, 1843, 1844, 1854, 1853
891, 1784, 1785, 1795, 1794, 1844, 1845, 1855, 1854
892, 1785, 1786, 1796, 1795, 1845, 1846, 1856, 1855
893, 1786, 1787, 1797, 1796, 1846, 1847, 1857, 1856
894, 1787, 1788, 1798, 1797, 1847, 1848, 1858, 1857
895, 1788, 1789, 1799, 1798, 1848, 1849, 1859, 1858
896, 1789, 1790, 1800, 1799, 1849, 1850, 1860, 1859
897, 1790, 1791, 1801, 1800, 1850, 1851, 1861, 1860
898, 1792, 1793, 1803, 1802, 1852, 1853, 1863, 1862
899, 1793, 1794, 1804, 1803, 1853, 1854, 1864, 1863
900, 1794, 1795, 1805, 1804, 1854, 1855, 1865, 1864
901, 1795, 1796, 1806, 1805, 1855, 1856, 1866, 1865
902, 1796, 1797, 1807, 1806, 1856, 1857, 1867, 1866
903, 1797, 1798, 1808, 1807, 1857, 1858, 1868, 1867
904, 1798, 1799, 1809, 1808, 1858, 1859, 1869, 1868
905, 1799, 1800, 1810, 1809, 1859, 1860, 1870, 1869
906, 1800, 1801, 1811, 1810, 1860, 1861, 1871, 1870
*NSET, NSET=A_GAP_FIX
1, 2, 3, 4, 5, 6, 7, 8, 9, 10, 11, 12, 13, 14, 15, 16,
17, 18, 19, 20, 21, 22, 23, 24, 25, 26, 27, 28, 29, 30, 31, 32,
33, 34, 35, 36, 37, 38, 39, 40, 41, 42, 43, 44, 45, 46, 47, 48,
49, 50, 51, 52, 53, 54, 55, 56, 57, 58, 59, 60, 61, 62, 63, 64,
65, 66, 67, 68, 69, 70
*NSET, NSET=A_GAP_TOP
372, 373, 374, 375, 376, 377, 378, 379, 380, 381, 382, 383, 384, 385, 386, 387,
388, 389, 390, 391, 392, 393, 394, 395, 396, 397, 398, 399, 400, 401, 402, 403,
404, 405, 406, 407, 408, 409, 410, 411, 412, 413, 414, 415, 416, 417, 418, 419,
420, 421, 422, 423, 424, 425, 426, 427, 428, 429, 430, 431, 432, 433, 434, 435,
436, 437, 438, 439, 440, 441, 442, 443, 444, 445, 446, 447, 448
*NSET, NSET=B_SLIDE_FIX
449, 450, 451, 452, 453, 454, 455, 456, 457, 458, 459, 460, 461, 462, 463, 464,
465, 466, 467, 468, 469, 470, 471, 472, 473, 474, 475, 476, 477, 478, 479, 480,
481, 482, 483, 484, 485, 486, 487, 488, 489, 490, 491, 492, 493, 494, 495, 496,
497, 498, 499, 500, 501, 502, 503, 504, 505, 506, 507, 508, 509, 510, 511, 512,
513, 514, 515, 516, 517, 518
*NSET, NSET=B_SLIDE_TOP
778, 779, 780, 781, 782, 783, 784, 785, 786, 787, 788, 789, 790, 791, 792, 793,
794, 795, 796, 797, 798, 799, 800, 801, 802, 803, 804, 805, 806, 807, 808, 809,
810, 811, 812, 813, 814, 815, 816, 817, 818, 819, 820, 821, 822, 823, 824, 825,
826, 827, 828, 829, 830, 831, 832, 833, 834, 835, 836, 837, 838, 839, 840
*NSET, NSET=C_LIFT_FIX
841, 842, 843, 844, 845, 846, 847, 848, 849, 850, 851, 852, 853, 854, 855, 856,
857, 858, 859, 860, 861, 862, 863, 864, 865, 866, 867, 868, 869, 870, 871, 872,
873, 874, 875, 876, 877, 878, 879, 880, 881, 882, 883, 884, 885, 886, 887, 888,
889, 890, 891, 892, 893, 894, 895, 896, 897, 898, 899, 900, 901, 902, 903, 904,
905, 906, 907, 908, 909, 910
*NSET, NSET=C_LIFT_TOP
1212, 1213, 1214, 1215, 1216, 1217, 1218, 1219, 1220, 1221, 1222, 1223, 1224, 1225, 1226, 1227,
1228, 1229, 1230, 1231, 1232, 1233, 1234, 1235, 1236, 1237, 1238, 1239, 1240, 1241, 1242, 1243,
1244, 1245, 1246, 1247, 1248, 1249, 1250, 1251, 1252, 1253, 1254, 1255, 1256, 1257, 1258, 1259,
1260, 1261, 1262, 1263, 1264, 1265, 1266, 1267, 1268, 1269, 1270, 1271, 1272, 1273, 1274, 1275,
1276, 1277, 1278, 1279, 1280, 1281, 1282, 1283, 1284, 1285, 1286, 1287, 1288
*NSET, NSET=C_LIFT_REF
1289
*NSET, NSET=C_LIFT_ROT
1290
*NSET, NSET=D_LAM_FIX
1291, 1292, 1293, 1294, 1295, 1296, 1297, 1298, 1299, 1300, 1301, 1302, 1303, 1304, 1305, 1306,
1307, 1308, 1309, 1310, 1311, 1312, 1313, 1314, 1315, 1316, 1317, 1318, 1319, 1320, 1321, 1322,
1323, 1324, 1325, 1326, 1327, 1328, 1329, 1330, 1331, 1332, 1333, 1334, 1335, 1336, 1337, 1338
*NSET, NSET=D_LAM_HELD
1387, 1412, 1437, 1462, 1487, 1512, 1537, 1562
*NSET, NSET=D_LAM_END
1411, 1436, 1461, 1486, 1511, 1536, 1561, 1586
*NSET, NSET=E_TIE_FIX
1587, 1594, 1601, 1608, 1615, 1622, 1629, 1636, 1643, 1650, 1657, 1664, 1671, 1678, 1685
*NSET, NSET=E_TIE_END
1821, 1831, 1841, 1851, 1861, 1871
*SURFACE, NAME=A_GAP_MASTER
1, S2
2, S2
3, S2
4, S2
5, S2
6, S2
7, S2
8, S2
9, S2
10, S2
11, S2
12, S2
13, S2
14, S2
15, S2
16, S2
17, S2
18, S2
19, S2
20, S2
21, S2
22, S2
23, S2
24, S2
25, S2
26, S2
27, S2
28, S2
29, S2
30, S2
31, S2
32, S2
33, S2
34, S2
35, S2
36, S2
37, S2
38, S2
39, S2
40, S2
41, S2
42, S2
43, S2
44, S2
45, S2
46, S2
47, S2
48, S2
49, S2
50, S2
51, S2
52, S2
53, S2
54, S2
*SURFACE, NAME=A_GAP_SLAVE
55, S1
56, S1
57, S1
58, S1
59, S1
60, S1
61, S1
62, S1
63, S1
64, S1
65, S1
66, S1
67, S1
68, S1
69, S1
70, S1
71, S1
72, S1
73, S1
74, S1
75, S1
76, S1
77, S1
78, S1
79, S1
80, S1
81, S1
82, S1
83, S1
84, S1
85, S1
86, S1
87, S1
88, S1
89, S1
90, S1
91, S1
92, S1
93, S1
94, S1
95, S1
96, S1
97, S1
98, S1
99, S1
100, S1
101, S1
102, S1
103, S1
104, S1
105, S1
106, S1
107, S1
108, S1
109, S1
110, S1
111, S1
112, S1
113, S1
114, S1
*SURFACE, NAME=B_SLIDE_MASTER
235, S2
236, S2
237, S2
238, S2
239, S2
240, S2
241, S2
242, S2
243, S2
244, S2
245, S2
246, S2
247, S2
248, S2
249, S2
250, S2
251, S2
252, S2
253, S2
254, S2
255, S2
256, S2
257, S2
258, S2
259, S2
260, S2
261, S2
262, S2
263, S2
264, S2
265, S2
266, S2
267, S2
268, S2
269, S2
270, S2
271, S2
272, S2
273, S2
274, S2
275, S2
276, S2
277, S2
278, S2
279, S2
280, S2
281, S2
282, S2
283, S2
284, S2
285, S2
286, S2
287, S2
288, S2
*SURFACE, NAME=B_SLIDE_SLAVE
289, S1
290, S1
291, S1
292, S1
293, S1
294, S1
295, S1
296, S1
297, S1
298, S1
299, S1
300, S1
301, S1
302, S1
303, S1
304, S1
305, S1
306, S1
307, S1
308, S1
309, S1
310, S1
311, S1
312, S1
313, S1
314, S1
315, S1
316, S1
317, S1
318, S1
319, S1
320, S1
321, S1
322, S1
323, S1
324, S1
325, S1
326, S1
327, S1
328, S1
329, S1
330, S1
331, S1
332, S1
333, S1
334, S1
335, S1
336, S1
*SURFACE, NAME=C_LIFT_MASTER
433, S2
434, S2
435, S2
436, S2
437, S2
438, S2
439, S2
440, S2
441, S2
442, S2
443, S2
444, S2
445, S2
446, S2
447, S2
448, S2
449, S2
450, S2
451, S2
452, S2
453, S2
454, S2
455, S2
456, S2
457, S2
458, S2
459, S2
460, S2
461, S2
462, S2
463, S2
464, S2
465, S2
466, S2
467, S2
468, S2
469, S2
470, S2
471, S2
472, S2
473, S2
474, S2
475, S2
476, S2
477, S2
478, S2
479, S2
480, S2
481, S2
482, S2
483, S2
484, S2
485, S2
486, S2
*SURFACE, NAME=C_LIFT_SLAVE
487, S1
488, S1
489, S1
490, S1
491, S1
492, S1
493, S1
494, S1
495, S1
496, S1
497, S1
498, S1
499, S1
500, S1
501, S1
502, S1
503, S1
504, S1
505, S1
506, S1
507, S1
508, S1
509, S1
510, S1
511, S1
512, S1
513, S1
514, S1
515, S1
516, S1
517, S1
518, S1
519, S1
520, S1
521, S1
522, S1
523, S1
524, S1
525, S1
526, S1
527, S1
528, S1
529, S1
530, S1
531, S1
532, S1
533, S1
534, S1
535, S1
536, S1
537, S1
538, S1
539, S1
540, S1
541, S1
542, S1
543, S1
544, S1
545, S1
546, S1
*SURFACE, NAME=D_LAM_MASTER
667, S2
668, S2
669, S2
670, S2
671, S2
672, S2
673, S2
674, S2
675, S2
676, S2
677, S2
678, S2
679, S2
680, S2
681, S2
682, S2
683, S2
684, S2
685, S2
686, S2
687, S2
688, S2
689, S2
690, S2
691, S2
692, S2
693, S2
694, S2
695, S2
696, S2
*SURFACE, NAME=D_LAM_SLAVE
697, S1
698, S1
699, S1
700, S1
701, S1
702, S1
703, S1
704, S1
705, S1
706, S1
707, S1
708, S1
709, S1
710, S1
711, S1
712, S1
713, S1
714, S1
715, S1
716, S1
717, S1
718, S1
719, S1
720, S1
721, S1
722, S1
723, S1
724, S1
725, S1
726, S1
727, S1
728, S1
729, S1
730, S1
731, S1
732, S1
733, S1
734, S1
735, S1
736, S1
737, S1
738, S1
739, S1
740, S1
741, S1
742, S1
743, S1
744, S1
745, S1
746, S1
747, S1
748, S1
749, S1
750, S1
751, S1
752, S1
753, S1
754, S1
755, S1
756, S1
757, S1
758, S1
759, S1
760, S1
761, S1
762, S1
763, S1
764, S1
765, S1
766, S1
767, S1
768, S1
*SURFACE, NAME=E_TIE_MASTER
793, S2
794, S2
795, S2
796, S2
797, S2
798, S2
799, S2
800, S2
801, S2
802, S2
803, S2
804, S2
805, S2
806, S2
807, S2
808, S2
809, S2
810, S2
811, S2
812, S2
813, S2
814, S2
815, S2
816, S2
*SURFACE, NAME=E_TIE_SLAVE
817, S1
818, S1
819, S1
820, S1
821, S1
822, S1
823, S1
824, S1
825, S1
826, S1
827, S1
828, S1
829, S1
830, S1
831, S1
832, S1
833, S1
834, S1
835, S1
836, S1
837, S1
838, S1
839, S1
840, S1
841, S1
842, S1
843, S1
844, S1
845, S1
846, S1
847, S1
848, S1
849, S1
850, S1
851, S1
852, S1
853, S1
854, S1
855, S1
856, S1
857, S1
858, S1
859, S1
860, S1
861, S1
*MATERIAL, NAME=STEEL
*ELASTIC
210000., 0.3
*SOLID SECTION, ELSET=A_GAP_PLATE, MATERIAL=STEEL
*SOLID SECTION, ELSET=A_GAP_BLOCK, MATERIAL=STEEL
*SOLID SECTION, ELSET=B_SLIDE_PLATE, MATERIAL=STEEL
*SOLID SECTION, ELSET=B_SLIDE_BLOCK, MATERIAL=STEEL
*SOLID SECTION, ELSET=C_LIFT_PLATE, MATERIAL=STEEL
*SOLID SECTION, ELSET=C_LIFT_BLOCK, MATERIAL=STEEL
*SOLID SECTION, ELSET=D_LAM_BOTTOM, MATERIAL=STEEL
*SOLID SECTION, ELSET=D_LAM_TOP, MATERIAL=STEEL
*SOLID SECTION, ELSET=E_TIE_BASE, MATERIAL=STEEL
*SOLID SECTION, ELSET=E_TIE_BLOCK, MATERIAL=STEEL
*RIGID BODY, NSET=C_LIFT_TOP, REF NODE=1289, ROT NODE=1290
*SURFACE INTERACTION, NAME=A_GAP
*SURFACE BEHAVIOR, PRESSURE-OVERCLOSURE=LINEAR
1000000., 0., 1.
*CONTACT PAIR, INTERACTION=A_GAP, TYPE=NODE TO SURFACE
A_GAP_SLAVE, A_GAP_MASTER
*SURFACE INTERACTION, NAME=B_SLIDE
*SURFACE BEHAVIOR, PRESSURE-OVERCLOSURE=LINEAR
1000000., 0., 1.
*FRICTION
0.3, 50000.
*CONTACT PAIR, INTERACTION=B_SLIDE, TYPE=NODE TO SURFACE
B_SLIDE_SLAVE, B_SLIDE_MASTER
*SURFACE INTERACTION, NAME=C_LIFT
*SURFACE BEHAVIOR, PRESSURE-OVERCLOSURE=LINEAR
1000000., 0., 1.
*CONTACT PAIR, INTERACTION=C_LIFT, TYPE=NODE TO SURFACE
C_LIFT_SLAVE, C_LIFT_MASTER
*SURFACE INTERACTION, NAME=D_LAM
*SURFACE BEHAVIOR, PRESSURE-OVERCLOSURE=LINEAR
1000000., 0., 1.
*CONTACT PAIR, INTERACTION=D_LAM, TYPE=NODE TO SURFACE
D_LAM_SLAVE, D_LAM_MASTER
*TIE, NAME=E_TIE, POSITION TOLERANCE=0.5
E_TIE_SLAVE, E_TIE_MASTER
*AMPLITUDE, NAME=PRESS
0., 0., 0.25, 1., 1., 1.
*AMPLITUDE, NAME=MOVE
0., 0., 0.25, 0., 1., 1.
*AMPLITUDE, NAME=HOLD
0., 0., 0.125, 1., 1., 1.
*AMPLITUDE, NAME=PEEL
0., 0., 0.125, 0., 1., 1.
*BOUNDARY
A_GAP_FIX, 1, 3
A_GAP_TOP, 1, 2
B_SLIDE_FIX, 1, 3
B_SLIDE_TOP, 2, 2
C_LIFT_FIX, 1, 3
C_LIFT_REF, 1, 2
C_LIFT_ROT, 1, 1
C_LIFT_ROT, 3, 3
D_LAM_FIX, 1, 3
D_LAM_HELD, 1, 2
E_TIE_FIX, 1, 3
*STEP, INC=200
*STATIC, DIRECT
0.125, 1.
*BOUNDARY
A_GAP_TOP, 3, 3, -0.3
*BOUNDARY, AMPLITUDE=PRESS
B_SLIDE_TOP, 3, 3, -0.02
*BOUNDARY, AMPLITUDE=MOVE
B_SLIDE_TOP, 1, 1, 0.04
*BOUNDARY, AMPLITUDE=PRESS
C_LIFT_REF, 3, 3, -0.01
*BOUNDARY, AMPLITUDE=MOVE
C_LIFT_ROT, 2, 2, 0.005
*BOUNDARY, AMPLITUDE=PEEL
D_LAM_END, 3, 3, 0.6
*CLOAD
1821, 3, -20.
1831, 3, -20.
1841, 3, -20.
1851, 3, -20.
1861, 3, -20.
1871, 3, -20.
*DLOAD, AMPLITUDE=HOLD
697, P2, 0.05
698, P2, 0.05
699, P2, 0.05
700, P2, 0.05
701, P2, 0.05
702, P2, 0.05
703, P2, 0.05
704, P2, 0.05
705, P2, 0.05
706, P2, 0.05
707, P2, 0.05
708, P2, 0.05
709, P2, 0.05
710, P2, 0.05
711, P2, 0.05
712, P2, 0.05
713, P2, 0.05
714, P2, 0.05
715, P2, 0.05
716, P2, 0.05
717, P2, 0.05
718, P2, 0.05
719, P2, 0.05
720, P2, 0.05
721, P2, 0.05
722, P2, 0.05
723, P2, 0.05
724, P2, 0.05
725, P2, 0.05
726, P2, 0.05
727, P2, 0.05
728, P2, 0.05
729, P2, 0.05
730, P2, 0.05
731, P2, 0.05
732, P2, 0.05
733, P2, 0.05
734, P2, 0.05
735, P2, 0.05
736, P2, 0.05
737, P2, 0.05
738, P2, 0.05
739, P2, 0.05
740, P2, 0.05
741, P2, 0.05
742, P2, 0.05
743, P2, 0.05
744, P2, 0.05
745, P2, 0.05
746, P2, 0.05
747, P2, 0.05
748, P2, 0.05
749, P2, 0.05
750, P2, 0.05
751, P2, 0.05
752, P2, 0.05
753, P2, 0.05
754, P2, 0.05
755, P2, 0.05
756, P2, 0.05
757, P2, 0.05
758, P2, 0.05
759, P2, 0.05
760, P2, 0.05
761, P2, 0.05
762, P2, 0.05
763, P2, 0.05
764, P2, 0.05
765, P2, 0.05
766, P2, 0.05
767, P2, 0.05
768, P2, 0.05
*NODE FILE, CONTACT ELEMENTS
U
*EL FILE
S
*CONTACT FILE
CDIS, CSTR
*END STEP
