*HEADING
ccxview showcase: every element type and modelling feature in one deck
*NODE, NSET=NALL
1, 0, 0, 0
2, 5, 0, 0
3, 10, 0, 0
4, 0, 5, 0
5, 5, 5, 0
6, 10, 5, 0
7, 0, 10, 0
8, 5, 10, 0
9, 10, 10, 0
10, 0, 0, 5
11, 5, 0, 5
12, 10, 0, 5
13, 0, 5, 5
14, 5, 5, 5
15, 10, 5, 5
16, 0, 10, 5
17, 5, 10, 5
18, 10, 10, 5
19, 0, 0, 10
20, 5, 0, 10
21, 10, 0, 10
22, 0, 5, 10
23, 5, 5, 10
24, 10, 5, 10
25, 0, 10, 10
26, 5, 10, 10
27, 10, 10, 10
28, 14, 5, 5
29, 14, 5, 6
30, 20, 0, 0
31, 30, 0, 0
32, 30, 10, 0
33, 20, 10, 0
34, 20, 0, 10
35, 30, 0, 10
36, 30, 10, 10
37, 20, 10, 10
38, 25, 0, 0
39, 30, 5, 0
40, 25, 10, 0
41, 20, 5, 0
42, 25, 0, 10
43, 30, 5, 10
44, 25, 10, 10
45, 20, 5, 10
46, 20, 0, 5
47, 30, 0, 5
48, 30, 10, 5
49, 20, 10, 5
50, 20, 0, 20
51, 30, 0, 20
52, 30, 10, 20
53, 20, 10, 20
54, 25, 0, 20
55, 30, 5, 20
56, 25, 10, 20
57, 20, 5, 20
58, 20, 0, 15
59, 30, 0, 15
60, 30, 10, 15
61, 20, 10, 15
62, 34, 5, 10
63, 40, 0, 0
64, 44, 0, 0
65, 40, 4, 0
66, 40, 0, 6
67, 50, 0, 0
68, 54, 0, 0
69, 50, 4, 0
70, 50, 0, 6
71, 52, 0, 0
72, 52, 2, 0
73, 50, 2, 0
74, 50, 0, 3
75, 52, 0, 3
76, 50, 2, 3
77, 60, 0, 0
78, 64, 0, 0
79, 60, 4, 0
80, 60, 0, 6
81, 64, 0, 6
82, 60, 4, 6
83, 70, 0, 0
84, 74, 0, 0
85, 70, 4, 0
86, 70, 0, 6
87, 74, 0, 6
88, 70, 4, 6
89, 72, 0, 0
90, 72, 2, 0
91, 70, 2, 0
92, 72, 0, 6
93, 72, 2, 6
94, 70, 2, 6
95, 70, 0, 3
96, 74, 0, 3
97, 70, 4, 3
98, 72, 1.3, 9
99, 80, 0, 0
100, 85, 0, 0
101, 90, 0, 0
102, 80, 5, 0
103, 85, 5, 0
104, 90, 5, 0
105, 80, 10, 0
106, 85, 10, 0
107, 90, 10, 0
108, 95, 0, 0
109, 100, 0, 0
110, 105, 0, 0
111, 95, 5, 0
112, 100, 5, 0
113, 105, 5, 0
114, 95, 10, 0
115, 100, 10, 0
116, 105, 10, 0
117, 97.5, 0, 0
118, 100, 2.5, 0
119, 97.5, 5, 0
120, 95, 2.5, 0
121, 102.5, 0, 0
122, 105, 2.5, 0
123, 102.5, 5, 0
124, 100, 7.5, 0
125, 97.5, 10, 0
126, 95, 7.5, 0
127, 105, 7.5, 0
128, 102.5, 10, 0
129, 110, 0, 0
130, 116, 0, 0
131, 110, 6, 0
132, 120, 0, 0
133, 126, 0, 0
134, 120, 6, 0
135, 123, 0, 0
136, 123, 3, 0
137, 120, 3, 0
138, 130, 0, 0
139, 132.5, 0, 0
140, 135, 0, 0
141, 137.5, 0, 0
142, 140, 0, 0
143, 145, 0, 0
144, 147.5, 0, 0
145, 150, 0, 0
146, 152.5, 0, 0
147, 155, 0, 0
148, 160, 0, 0
149, 170, 0, 0
150, 165, 0, 6
151, 180, 0, 0
152, 186, 0, 0
153, 180, 6, 0
154, 180, 12, 0
155, 184, 12, 0
156, 200, 0, 0
157, 205, 0, 0
158, 210, 0, 0
159, 200, 5, 0
160, 205, 5, 0
161, 210, 5, 0
162, 200, 10, 0
163, 205, 10, 0
164, 210, 10, 0
165, 200, 0, 5
166, 205, 0, 5
167, 210, 0, 5
168, 200, 5, 5
169, 205, 5, 5
170, 210, 5, 5
171, 200, 10, 5
172, 205, 10, 5
173, 210, 10, 5
174, 200, 0, 5
175, 205, 0, 5
176, 210, 0, 5
177, 200, 5, 5
178, 205, 5, 5
179, 210, 5, 5
180, 200, 10, 5
181, 205, 10, 5
182, 210, 10, 5
183, 200, 0, 10
184, 205, 0, 10
185, 210, 0, 10
186, 200, 5, 10
187, 205, 5, 10
188, 210, 5, 10
189, 200, 10, 10
190, 205, 10, 10
191, 210, 10, 10
192, 220, 0, 0
193, 225, 0, 0
194, 230, 0, 0
195, 220, 5, 0
196, 225, 5, 0
197, 230, 5, 0
198, 220, 10, 0
199, 225, 10, 0
200, 230, 10, 0
201, 220, 0, 5
202, 225, 0, 5
203, 230, 0, 5
204, 220, 5, 5
205, 225, 5, 5
206, 230, 5, 5
207, 220, 10, 5
208, 225, 10, 5
209, 230, 10, 5
210, 220, 0, 5
211, 225, 0, 5
212, 230, 0, 5
213, 220, 5, 5
214, 225, 5, 5
215, 230, 5, 5
216, 220, 10, 5
217, 225, 10, 5
218, 230, 10, 5
219, 220, 0, 10
220, 225, 0, 10
221, 230, 0, 10
222, 220, 5, 10
223, 225, 5, 10
224, 230, 5, 10
225, 220, 10, 10
226, 225, 10, 10
227, 230, 10, 10
*ELEMENT, TYPE=C3D8, ELSET=EHEX8
1, 1, 2, 5, 4, 10, 11, 14, 13
2, 2, 3, 6, 5, 11, 12, 15, 14
3, 4, 5, 8, 7, 13, 14, 17, 16
4, 5, 6, 9, 8, 14, 15, 18, 17
5, 10, 11, 14, 13, 19, 20, 23, 22
6, 11, 12, 15, 14, 20, 21, 24, 23
7, 13, 14, 17, 16, 22, 23, 26, 25
8, 14, 15, 18, 17, 23, 24, 27, 26
*ELEMENT, TYPE=C3D20R, ELSET=EHEX20
9, 30, 31, 32, 33, 34, 35, 36, 37, 38, 39, 40, 41, 42, 43, 44,
45, 46, 47, 48, 49
10, 34, 35, 36, 37, 50, 51, 52, 53, 42, 43, 44, 45, 54, 55, 56,
57, 58, 59, 60, 61
*ELEMENT, TYPE=C3D4, ELSET=ETET4
11, 63, 64, 65, 66
*ELEMENT, TYPE=C3D10, ELSET=ETET10
12, 67, 68, 69, 70, 71, 72, 73, 74, 75, 76
*ELEMENT, TYPE=C3D6, ELSET=EWEDGE6
13, 77, 78, 79, 80, 81, 82
*ELEMENT, TYPE=C3D15, ELSET=EWEDGE15
14, 83, 84, 85, 86, 87, 88, 89, 90, 91, 92, 93, 94, 95, 96, 97
*ELEMENT, TYPE=DCOUP3D, ELSET=EDC
15, 98
*ELEMENT, TYPE=S4, ELSET=ES4
16, 99, 100, 103, 102
17, 100, 101, 104, 103
18, 102, 103, 106, 105
19, 103, 104, 107, 106
*ELEMENT, TYPE=S8, ELSET=ES8
20, 108, 109, 112, 111, 117, 118, 119, 120
21, 109, 110, 113, 112, 121, 122, 123, 118
22, 111, 112, 115, 114, 119, 124, 125, 126
23, 112, 113, 116, 115, 123, 127, 128, 124
*ELEMENT, TYPE=S3, ELSET=ES3
24, 129, 130, 131
*ELEMENT, TYPE=S6, ELSET=ES6
25, 132, 133, 134, 135, 136, 137
*ELEMENT, TYPE=B31, ELSET=EB31
26, 138, 139
27, 139, 140
28, 140, 141
29, 141, 142
*ELEMENT, TYPE=B32, ELSET=EB32
30, 143, 144, 145
31, 145, 146, 147
*ELEMENT, TYPE=T3D2, ELSET=ET3D2
32, 148, 150
33, 149, 150
*ELEMENT, TYPE=SPRINGA, ELSET=ESPRINGA
34, 151, 152
*ELEMENT, TYPE=DASHPOTA, ELSET=EDASHPOT
35, 151, 152
*ELEMENT, TYPE=MASS, ELSET=EMASS
36, 152
*ELEMENT, TYPE=SPRING1, ELSET=ESPRING1
37, 153
*ELEMENT, TYPE=GAPUNI, ELSET=EGAP
38, 154, 155
*ELEMENT, TYPE=SPRING1, ELSET=ESPRING1
39, 154
*ELEMENT, TYPE=C3D8, ELSET=ETIE_LO
40, 156, 157, 160, 159, 165, 166, 169, 168
41, 157, 158, 161, 160, 166, 167, 170, 169
42, 159, 160, 163, 162, 168, 169, 172, 171
43, 160, 161, 164, 163, 169, 170, 173, 172
*ELEMENT, TYPE=C3D8, ELSET=ETIE_UP
44, 174, 175, 178, 177, 183, 184, 187, 186
45, 175, 176, 179, 178, 184, 185, 188, 187
46, 177, 178, 181, 180, 186, 187, 190, 189
47, 178, 179, 182, 181, 187, 188, 191, 190
*ELEMENT, TYPE=C3D8, ELSET=ECON_LO
48, 192, 193, 196, 195, 201, 202, 205, 204
49, 193, 194, 197, 196, 202, 203, 206, 205
50, 195, 196, 199, 198, 204, 205, 208, 207
51, 196, 197, 200, 199, 205, 206, 209, 208
*ELEMENT, TYPE=C3D8, ELSET=ECON_UP
52, 210, 211, 214, 213, 219, 220, 223, 222
53, 211, 212, 215, 214, 220, 221, 224, 223
54, 213, 214, 217, 216, 222, 223, 226, 225
55, 214, 215, 218, 217, 223, 224, 227, 226
*ELEMENT, TYPE=SPRING1, ELSET=ESOFT
56, 219
57, 225
58, 221
59, 227
*NSET, NSET=NFIX_HEX8
1, 4, 7, 10, 13, 16, 19, 22, 25
*NSET, NSET=NRIGID
3, 6, 9, 12, 15, 18, 21, 24, 27
*NSET, NSET=NREF1
28
*NSET, NSET=NFIX_HEX20
30, 33, 34, 37, 41, 45, 46, 49, 50, 53, 57, 58, 61
*NSET, NSET=NREF2
62
*NSET, NSET=NFIX_TET4
63, 64, 65
*NSET, NSET=NFIX_TET10
67, 68, 69, 71, 72, 73
*NSET, NSET=NFIX_WEDGE6
77, 78, 79
*NSET, NSET=NLOAD_WEDGE6
80, 81, 82
*NSET, NSET=NFIX_WEDGE15
83, 84, 85, 89, 90, 91
*NSET, NSET=NREF3
98
*NSET, NSET=NFIX_S4
99, 102, 105
*NSET, NSET=NFIX_S8
108, 111, 114
*NSET, NSET=NFIX_S3
129, 130
*NSET, NSET=NFIX_S6
132, 133
*NSET, NSET=NFIX_B31
138
*NSET, NSET=NTIP_B31
142
*NSET, NSET=NFIX_B32
143
*NSET, NSET=NTIP_B32
147
*NSET, NSET=NFIX_TRUSS
148, 149
*NSET, NSET=NTIP_TRUSS
150
*NSET, NSET=NSPRING_FIX
151
*NSET, NSET=NSPRING_LOAD
152
*NSET, NSET=NSPRING1
153
*NSET, NSET=NGAP_LOAD
154
*NSET, NSET=NGAP_FIX
155
*NSET, NSET=NFIX_TIE
156, 157, 158, 159, 160, 161, 162, 163, 164
*NSET, NSET=NFIX_CON
192, 193, 194, 195, 196, 197, 198, 199, 200
*NSET, NSET=NCON_UP_SIDE
210, 213, 216, 219, 222, 225
*ELSET, ELSET=EHEX8_TOP
5, 6, 7, 8
*ELSET, ELSET=EHEX20_FAR
9, 10
*ELSET, ELSET=ESOLID
EHEX8, EHEX20, ETET4, ETET10, EWEDGE6, EWEDGE15, ETIE_LO, ETIE_UP, ECON_LO, ECON_UP
*SURFACE, NAME=SHEX20_FAR, TYPE=ELEMENT
EHEX20_FAR, S4
*SURFACE, NAME=STIE_LO, TYPE=ELEMENT
ETIE_LO, S2
*SURFACE, NAME=STIE_UP, TYPE=ELEMENT
ETIE_UP, S1
*SURFACE, NAME=SCON_LO, TYPE=ELEMENT
ECON_LO, S2
*SURFACE, NAME=SCON_UP, TYPE=ELEMENT
ECON_UP, S1
*MATERIAL, NAME=STEEL
*ELASTIC
210000., 0.3
*DENSITY
7.85e-9
*MATERIAL, NAME=ALU
*ELASTIC
70000., 0.33
*DENSITY
2.7e-9
*SOLID SECTION, ELSET=ESOLID, MATERIAL=STEEL
*SOLID SECTION, ELSET=ET3D2, MATERIAL=ALU
2.
*SHELL SECTION, ELSET=ES4, MATERIAL=ALU
1.
*SHELL SECTION, ELSET=ES8, MATERIAL=ALU
1.
*SHELL SECTION, ELSET=ES3, MATERIAL=ALU
1.
*SHELL SECTION, ELSET=ES6, MATERIAL=ALU
1.
*BEAM SECTION, ELSET=EB31, MATERIAL=STEEL, SECTION=RECT
1., 1.
0., 0., 1.
*BEAM SECTION, ELSET=EB32, MATERIAL=STEEL, SECTION=RECT
1., 1.
0., 0., 1.
*SPRING, ELSET=ESPRINGA
1000.
*DASHPOT, ELSET=EDASHPOT

0.1
*MASS, ELSET=EMASS
1e-3
*SPRING, ELSET=ESPRING1
1
500.
*SPRING, ELSET=ESOFT
3
20.
*GAP, ELSET=EGAP
0.5, 1., 0., 0.
*RIGID BODY, NSET=NRIGID, REF NODE=28, ROT NODE=29
*COUPLING, REF NODE=62, SURFACE=SHEX20_FAR, CONSTRAINT NAME=CPL1
*KINEMATIC
1, 3
*DISTRIBUTING COUPLING, ELSET=EDC
86, 1.
87, 1.
88, 1.
92, 1.
93, 1.
94, 1.
*EQUATION
2
66, 3, 1., 70, 3, -1.
*TIE, NAME=TIE1, POSITION TOLERANCE=0.5
STIE_UP, STIE_LO
*SURFACE INTERACTION, NAME=SI1
*SURFACE BEHAVIOR, PRESSURE-OVERCLOSURE=LINEAR
1e5
*CONTACT PAIR, INTERACTION=SI1, TYPE=NODE TO SURFACE
SCON_UP, SCON_LO
*BOUNDARY
NFIX_HEX8, 1, 3
NFIX_HEX20, 1, 3
NFIX_TET4, 1, 3
NFIX_TET10, 1, 3
NFIX_WEDGE6, 1, 3
NFIX_WEDGE15, 1, 3
NFIX_S4, 1, 6
NFIX_S8, 1, 6
NFIX_S3, 1, 6
NFIX_S6, 1, 6
NFIX_B31, 1, 6
NFIX_B32, 1, 6
NFIX_TRUSS, 1, 3
NTIP_TRUSS, 2, 2
NSPRING_FIX, 1, 3
NSPRING_LOAD, 2, 3
NSPRING1, 2, 3
NGAP_LOAD, 2, 3
NGAP_FIX, 1, 3
NFIX_TIE, 1, 3
NFIX_CON, 1, 3
NCON_UP_SIDE, 1, 2
28, 2, 3
29, 1, 3
62, 2, 2
98, 1, 2
*STEP
*STATIC
1., 1.
*CLOAD
28, 1, 2000.
62, 1, 1500.
62, 3, -500.
66, 1, 100.
70, 1, 100.
98, 3, -300.
NLOAD_WEDGE6, 1, 50.
NTIP_B31, 3, -20.
NTIP_B32, 3, -20.
NTIP_B32, 4, 5.
NTIP_TRUSS, 3, -100.
NSPRING_LOAD, 1, 30.
NSPRING1, 1, -20.
NGAP_LOAD, 1, 40.
*DLOAD
EHEX8_TOP, P2, 1.5
ETIE_UP, P2, 2.
ECON_UP, P2, 3.
ES4, P, 0.02
ES8, P, 0.02
*NODE FILE
U, RF
*EL FILE
S, E, ERR
*CONTACT FILE
CDIS, CSTR
*EL PRINT, ELSET=EHEX8
S, COORD
*NODE PRINT, NSET=NFIX_HEX8
RF
*END STEP
*STEP
*FREQUENCY
8
*NODE FILE
U
*END STEP
