*HEADING
ccxview sample: a block tied onto a base, its slave surface past the master's end
*NODE, NSET=NALL
1, 0, 0, -10
2, 5, 0, -10
3, 10, 0, -10
4, 15, 0, -10
5, 20, 0, -10
6, 25, 0, -10
7, 30, 0, -10
8, 35, 0, -10
9, 40, 0, -10
10, 0, 5, -10
11, 5, 5, -10
12, 10, 5, -10
13, 15, 5, -10
14, 20, 5, -10
15, 25, 5, -10
16, 30, 5, -10
17, 35, 5, -10
18, 40, 5, -10
19, 0, 10, -10
20, 5, 10, -10
21, 10, 10, -10
22, 15, 10, -10
23, 20, 10, -10
24, 25, 10, -10
25, 30, 10, -10
26, 35, 10, -10
27, 40, 10, -10
28, 0, 15, -10
29, 5, 15, -10
30, 10, 15, -10
31, 15, 15, -10
32, 20, 15, -10
33, 25, 15, -10
34, 30, 15, -10
35, 35, 15, -10
36, 40, 15, -10
37, 0, 20, -10
38, 5, 20, -10
39, 10, 20, -10
40, 15, 20, -10
41, 20, 20, -10
42, 25, 20, -10
43, 30, 20, -10
44, 35, 20, -10
45, 40, 20, -10
46, 0, 0, -5
47, 5, 0, -5
48, 10, 0, -5
49, 15, 0, -5
50, 20, 0, -5
51, 25, 0, -5
52, 30, 0, -5
53, 35, 0, -5
54, 40, 0, -5
55, 0, 5, -5
56, 5, 5, -5
57, 10, 5, -5
58, 15, 5, -5
59, 20, 5, -5
60, 25, 5, -5
61, 30, 5, -5
62, 35, 5, -5
63, 40, 5, -5
64, 0, 10, -5
65, 5, 10, -5
66, 10, 10, -5
67, 15, 10, -5
68, 20, 10, -5
69, 25, 10, -5
70, 30, 10, -5
71, 35, 10, -5
72, 40, 10, -5
73, 0, 15, -5
74, 5, 15, -5
75, 10, 15, -5
76, 15, 15, -5
77, 20, 15, -5
78, 25, 15, -5
79, 30, 15, -5
80, 35, 15, -5
81, 40, 15, -5
82, 0, 20, -5
83, 5, 20, -5
84, 10, 20, -5
85, 15, 20, -5
86, 20, 20, -5
87, 25, 20, -5
88, 30, 20, -5
89, 35, 20, -5
90, 40, 20, -5
91, 0, 0, 0
92, 5, 0, 0
93, 10, 0, 0
94, 15, 0, 0
95, 20, 0, 0
96, 25, 0, 0
97, 30, 0, 0
98, 35, 0, 0
99, 40, 0, 0
100, 0, 5, 0
101, 5, 5, 0
102, 10, 5, 0
103, 15, 5, 0
104, 20, 5, 0
105, 25, 5, 0
106, 30, 5, 0
107, 35, 5, 0
108, 40, 5, 0
109, 0, 10, 0
110, 5, 10, 0
111, 10, 10, 0
112, 15, 10, 0
113, 20, 10, 0
114, 25, 10, 0
115, 30, 10, 0
116, 35, 10, 0
117, 40, 10, 0
118, 0, 15, 0
119, 5, 15, 0
120, 10, 15, 0
121, 15, 15, 0
122, 20, 15, 0
123, 25, 15, 0
124, 30, 15, 0
125, 35, 15, 0
126, 40, 15, 0
127, 0, 20, 0
128, 5, 20, 0
129, 10, 20, 0
130, 15, 20, 0
131, 20, 20, 0
132, 25, 20, 0
133, 30, 20, 0
134, 35, 20, 0
135, 40, 20, 0
136, 16, 0, 0
137, 18.7273, 0, 0
138, 21.4545, 0, 0
139, 24.1818, 0, 0
140, 26.9091, 0, 0
141, 29.6364, 0, 0
142, 32.3636, 0, 0
143, 35.0909, 0, 0
144, 37.8182, 0, 0
145, 40.5455, 0, 0
146, 43.2727, 0, 0
147, 46, 0, 0
148, 16, 2.85714, 0
149, 18.7273, 2.85714, 0
150, 21.4545, 2.85714, 0
151, 24.1818, 2.85714, 0
152, 26.9091, 2.85714, 0
153, 29.6364, 2.85714, 0
154, 32.3636, 2.85714, 0
155, 35.0909, 2.85714, 0
156, 37.8182, 2.85714, 0
157, 40.5455, 2.85714, 0
158, 43.2727, 2.85714, 0
159, 46, 2.85714, 0
160, 16, 5.71429, 0
161, 18.7273, 5.71429, 0
162, 21.4545, 5.71429, 0
163, 24.1818, 5.71429, 0
164, 26.9091, 5.71429, 0
165, 29.6364, 5.71429, 0
166, 32.3636, 5.71429, 0
167, 35.0909, 5.71429, 0
168, 37.8182, 5.71429, 0
169, 40.5455, 5.71429, 0
170, 43.2727, 5.71429, 0
171, 46, 5.71429, 0
172, 16, 8.57143, 0
173, 18.7273, 8.57143, 0
174, 21.4545, 8.57143, 0
175, 24.1818, 8.57143, 0
176, 26.9091, 8.57143, 0
177, 29.6364, 8.57143, 0
178, 32.3636, 8.57143, 0
179, 35.0909, 8.57143, 0
180, 37.8182, 8.57143, 0
181, 40.5455, 8.57143, 0
182, 43.2727, 8.57143, 0
183, 46, 8.57143, 0
184, 16, 11.4286, 0
185, 18.7273, 11.4286, 0
186, 21.4545, 11.4286, 0
187, 24.1818, 11.4286, 0
188, 26.9091, 11.4286, 0
189, 29.6364, 11.4286, 0
190, 32.3636, 11.4286, 0
191, 35.0909, 11.4286, 0
192, 37.8182, 11.4286, 0
193, 40.5455, 11.4286, 0
194, 43.2727, 11.4286, 0
195, 46, 11.4286, 0
196, 16, 14.2857, 0
197, 18.7273, 14.2857, 0
198, 21.4545, 14.2857, 0
199, 24.1818, 14.2857, 0
200, 26.9091, 14.2857, 0
201, 29.6364, 14.2857, 0
202, 32.3636, 14.2857, 0
203, 35.0909, 14.2857, 0
204, 37.8182, 14.2857, 0
205, 40.5455, 14.2857, 0
206, 43.2727, 14.2857, 0
207, 46, 14.2857, 0
208, 16, 17.1429, 0
209, 18.7273, 17.1429, 0
210, 21.4545, 17.1429, 0
211, 24.1818, 17.1429, 0
212, 26.9091, 17.1429, 0
213, 29.6364, 17.1429, 0
214, 32.3636, 17.1429, 0
215, 35.0909, 17.1429, 0
216, 37.8182, 17.1429, 0
217, 40.5455, 17.1429, 0
218, 43.2727, 17.1429, 0
219, 46, 17.1429, 0
220, 16, 20, 0
221, 18.7273, 20, 0
222, 21.4545, 20, 0
223, 24.1818, 20, 0
224, 26.9091, 20, 0
225, 29.6364, 20, 0
226, 32.3636, 20, 0
227, 35.0909, 20, 0
228, 37.8182, 20, 0
229, 40.5455, 20, 0
230, 43.2727, 20, 0
231, 46, 20, 0
232, 16, 0, 3.33333
233, 18.7273, 0, 3.33333
234, 21.4545, 0, 3.33333
235, 24.1818, 0, 3.33333
236, 26.9091, 0, 3.33333
237, 29.6364, 0, 3.33333
238, 32.3636, 0, 3.33333
239, 35.0909, 0, 3.33333
240, 37.8182, 0, 3.33333
241, 40.5455, 0, 3.33333
242, 43.2727, 0, 3.33333
243, 46, 0, 3.33333
244, 16, 2.85714, 3.33333
245, 18.7273, 2.85714, 3.33333
246, 21.4545, 2.85714, 3.33333
247, 24.1818, 2.85714, 3.33333
248, 26.9091, 2.85714, 3.33333
249, 29.6364, 2.85714, 3.33333
250, 32.3636, 2.85714, 3.33333
251, 35.0909, 2.85714, 3.33333
252, 37.8182, 2.85714, 3.33333
253, 40.5455, 2.85714, 3.33333
254, 43.2727, 2.85714, 3.33333
255, 46, 2.85714, 3.33333
256, 16, 5.71429, 3.33333
257, 18.7273, 5.71429, 3.33333
258, 21.4545, 5.71429, 3.33333
259, 24.1818, 5.71429, 3.33333
260, 26.9091, 5.71429, 3.33333
261, 29.6364, 5.71429, 3.33333
262, 32.3636, 5.71429, 3.33333
263, 35.0909, 5.71429, 3.33333
264, 37.8182, 5.71429, 3.33333
265, 40.5455, 5.71429, 3.33333
266, 43.2727, 5.71429, 3.33333
267, 46, 5.71429, 3.33333
268, 16, 8.57143, 3.33333
269, 18.7273, 8.57143, 3.33333
270, 21.4545, 8.57143, 3.33333
271, 24.1818, 8.57143, 3.33333
272, 26.9091, 8.57143, 3.33333
273, 29.6364, 8.57143, 3.33333
274, 32.3636, 8.57143, 3.33333
275, 35.0909, 8.57143, 3.33333
276, 37.8182, 8.57143, 3.33333
277, 40.5455, 8.57143, 3.33333
278, 43.2727, 8.57143, 3.33333
279, 46, 8.57143, 3.33333
280, 16, 11.4286, 3.33333
281, 18.7273, 11.4286, 3.33333
282, 21.4545, 11.4286, 3.33333
283, 24.1818, 11.4286, 3.33333
284, 26.9091, 11.4286, 3.33333
285, 29.6364, 11.4286, 3.33333
286, 32.3636, 11.4286, 3.33333
287, 35.0909, 11.4286, 3.33333
288, 37.8182, 11.4286, 3.33333
289, 40.5455, 11.4286, 3.33333
290, 43.2727, 11.4286, 3.33333
291, 46, 11.4286, 3.33333
292, 16, 14.2857, 3.33333
293, 18.7273, 14.2857, 3.33333
294, 21.4545, 14.2857, 3.33333
295, 24.1818, 14.2857, 3.33333
296, 26.9091, 14.2857, 3.33333
297, 29.6364, 14.2857, 3.33333
298, 32.3636, 14.2857, 3.33333
299, 35.0909, 14.2857, 3.33333
300, 37.8182, 14.2857, 3.33333
301, 40.5455, 14.2857, 3.33333
302, 43.2727, 14.2857, 3.33333
303, 46, 14.2857, 3.33333
304, 16, 17.1429, 3.33333
305, 18.7273, 17.1429, 3.33333
306, 21.4545, 17.1429, 3.33333
307, 24.1818, 17.1429, 3.33333
308, 26.9091, 17.1429, 3.33333
309, 29.6364, 17.1429, 3.33333
310, 32.3636, 17.1429, 3.33333
311, 35.0909, 17.1429, 3.33333
312, 37.8182, 17.1429, 3.33333
313, 40.5455, 17.1429, 3.33333
314, 43.2727, 17.1429, 3.33333
315, 46, 17.1429, 3.33333
316, 16, 20, 3.33333
317, 18.7273, 20, 3.33333
318, 21.4545, 20, 3.33333
319, 24.1818, 20, 3.33333
320, 26.9091, 20, 3.33333
321, 29.6364, 20, 3.33333
322, 32.3636, 20, 3.33333
323, 35.0909, 20, 3.33333
324, 37.8182, 20, 3.33333
325, 40.5455, 20, 3.33333
326, 43.2727, 20, 3.33333
327, 46, 20, 3.33333
328, 16, 0, 6.66667
329, 18.7273, 0, 6.66667
330, 21.4545, 0, 6.66667
331, 24.1818, 0, 6.66667
332, 26.9091, 0, 6.66667
333, 29.6364, 0, 6.66667
334, 32.3636, 0, 6.66667
335, 35.0909, 0, 6.66667
336, 37.8182, 0, 6.66667
337, 40.5455, 0, 6.66667
338, 43.2727, 0, 6.66667
339, 46, 0, 6.66667
340, 16, 2.85714, 6.66667
341, 18.7273, 2.85714, 6.66667
342, 21.4545, 2.85714, 6.66667
343, 24.1818, 2.85714, 6.66667
344, 26.9091, 2.85714, 6.66667
345, 29.6364, 2.85714, 6.66667
346, 32.3636, 2.85714, 6.66667
347, 35.0909, 2.85714, 6.66667
348, 37.8182, 2.85714, 6.66667
349, 40.5455, 2.85714, 6.66667
350, 43.2727, 2.85714, 6.66667
351, 46, 2.85714, 6.66667
352, 16, 5.71429, 6.66667
353, 18.7273, 5.71429, 6.66667
354, 21.4545, 5.71429, 6.66667
355, 24.1818, 5.71429, 6.66667
356, 26.9091, 5.71429, 6.66667
357, 29.6364, 5.71429, 6.66667
358, 32.3636, 5.71429, 6.66667
359, 35.0909, 5.71429, 6.66667
360, 37.8182, 5.71429, 6.66667
361, 40.5455, 5.71429, 6.66667
362, 43.2727, 5.71429, 6.66667
363, 46, 5.71429, 6.66667
364, 16, 8.57143, 6.66667
365, 18.7273, 8.57143, 6.66667
366, 21.4545, 8.57143, 6.66667
367, 24.1818, 8.57143, 6.66667
368, 26.9091, 8.57143, 6.66667
369, 29.6364, 8.57143, 6.66667
370, 32.3636, 8.57143, 6.66667
371, 35.0909, 8.57143, 6.66667
372, 37.8182, 8.57143, 6.66667
373, 40.5455, 8.57143, 6.66667
374, 43.2727, 8.57143, 6.66667
375, 46, 8.57143, 6.66667
376, 16, 11.4286, 6.66667
377, 18.7273, 11.4286, 6.66667
378, 21.4545, 11.4286, 6.66667
379, 24.1818, 11.4286, 6.66667
380, 26.9091, 11.4286, 6.66667
381, 29.6364, 11.4286, 6.66667
382, 32.3636, 11.4286, 6.66667
383, 35.0909, 11.4286, 6.66667
384, 37.8182, 11.4286, 6.66667
385, 40.5455, 11.4286, 6.66667
386, 43.2727, 11.4286, 6.66667
387, 46, 11.4286, 6.66667
388, 16, 14.2857, 6.66667
389, 18.7273, 14.2857, 6.66667
390, 21.4545, 14.2857, 6.66667
391, 24.1818, 14.2857, 6.66667
392, 26.9091, 14.2857, 6.66667
393, 29.6364, 14.2857, 6.66667
394, 32.3636, 14.2857, 6.66667
395, 35.0909, 14.2857, 6.66667
396, 37.8182, 14.2857, 6.66667
397, 40.5455, 14.2857, 6.66667
398, 43.2727, 14.2857, 6.66667
399, 46, 14.2857, 6.66667
400, 16, 17.1429, 6.66667
401, 18.7273, 17.1429, 6.66667
402, 21.4545, 17.1429, 6.66667
403, 24.1818, 17.1429, 6.66667
404, 26.9091, 17.1429, 6.66667
405, 29.6364, 17.1429, 6.66667
406, 32.3636, 17.1429, 6.66667
407, 35.0909, 17.1429, 6.66667
408, 37.8182, 17.1429, 6.66667
409, 40.5455, 17.1429, 6.66667
410, 43.2727, 17.1429, 6.66667
411, 46, 17.1429, 6.66667
412, 16, 20, 6.66667
413, 18.7273, 20, 6.66667
414, 21.4545, 20, 6.66667
415, 24.1818, 20, 6.66667
416, 26.9091, 20, 6.66667
417, 29.6364, 20, 6.66667
418, 32.3636, 20, 6.66667
419, 35.0909, 20, 6.66667
420, 37.8182, 20, 6.66667
421, 40.5455, 20, 6.66667
422, 43.2727, 20, 6.66667
423, 46, 20, 6.66667
424, 16, 0, 10
425, 18.7273, 0, 10
426, 21.4545, 0, 10
427, 24.1818, 0, 10
428, 26.9091, 0, 10
429, 29.6364, 0, 10
430, 32.3636, 0, 10
431, 35.0909, 0, 10
432, 37.8182, 0, 10
433, 40.5455, 0, 10
434, 43.2727, 0, 10
435, 46, 0, 10
436, 16, 2.85714, 10
437, 18.7273, 2.85714, 10
438, 21.4545, 2.85714, 10
439, 24.1818, 2.85714, 10
440, 26.9091, 2.85714, 10
441, 29.6364, 2.85714, 10
442, 32.3636, 2.85714, 10
443, 35.0909, 2.85714, 10
444, 37.8182, 2.85714, 10
445, 40.5455, 2.85714, 10
446, 43.2727, 2.85714, 10
447, 46, 2.85714, 10
448, 16, 5.71429, 10
449, 18.7273, 5.71429, 10
450, 21.4545, 5.71429, 10
451, 24.1818, 5.71429, 10
452, 26.9091, 5.71429, 10
453, 29.6364, 5.71429, 10
454, 32.3636, 5.71429, 10
455, 35.0909, 5.71429, 10
456, 37.8182, 5.71429, 10
457, 40.5455, 5.71429, 10
458, 43.2727, 5.71429, 10
459, 46, 5.71429, 10
460, 16, 8.57143, 10
461, 18.7273, 8.57143, 10
462, 21.4545, 8.57143, 10
463, 24.1818, 8.57143, 10
464, 26.9091, 8.57143, 10
465, 29.6364, 8.57143, 10
466, 32.3636, 8.57143, 10
467, 35.0909, 8.57143, 10
468, 37.8182, 8.57143, 10
469, 40.5455, 8.57143, 10
470, 43.2727, 8.57143, 10
471, 46, 8.57143, 10
472, 16, 11.4286, 10
473, 18.7273, 11.4286, 10
474, 21.4545, 11.4286, 10
475, 24.1818, 11.4286, 10
476, 26.9091, 11.4286, 10
477, 29.6364, 11.4286, 10
478, 32.3636, 11.4286, 10
479, 35.0909, 11.4286, 10
480, 37.8182, 11.4286, 10
481, 40.5455, 11.4286, 10
482, 43.2727, 11.4286, 10
483, 46, 11.4286, 10
484, 16, 14.2857, 10
485, 18.7273, 14.2857, 10
486, 21.4545, 14.2857, 10
487, 24.1818, 14.2857, 10
488, 26.9091, 14.2857, 10
489, 29.6364, 14.2857, 10
490, 32.3636, 14.2857, 10
491, 35.0909, 14.2857, 10
492, 37.8182, 14.2857, 10
493, 40.5455, 14.2857, 10
494, 43.2727, 14.2857, 10
495, 46, 14.2857, 10
496, 16, 17.1429, 10
497, 18.7273, 17.1429, 10
498, 21.4545, 17.1429, 10
499, 24.1818, 17.1429, 10
500, 26.9091, 17.1429, 10
501, 29.6364, 17.1429, 10
502, 32.3636, 17.1429, 10
503, 35.0909, 17.1429, 10
504, 37.8182, 17.1429, 10
505, 40.5455, 17.1429, 10
506, 43.2727, 17.1429, 10
507, 46, 17.1429, 10
508, 16, 20, 10
509, 18.7273, 20, 10
510, 21.4545, 20, 10
511, 24.1818, 20, 10
512, 26.9091, 20, 10
513, 29.6364, 20, 10
514, 32.3636, 20, 10
515, 35.0909, 20, 10
516, 37.8182, 20, 10
517, 40.5455, 20, 10
518, 43.2727, 20, 10
519, 46, 20, 10
*ELEMENT, TYPE=C3D8I, ELSET=BASE
1, 1, 2, 11, 10, 46, 47, 56, 55
2, 2, 3, 12, 11, 47, 48, 57, 56
3, 3, 4, 13, 12, 48, 49, 58, 57
4, 4, 5, 14, 13, 49, 50, 59, 58
5, 5, 6, 15, 14, 50, 51, 60, 59
6, 6, 7, 16, 15, 51, 52, 61, 60
7, 7, 8, 17, 16, 52, 53, 62, 61
8, 8, 9, 18, 17, 53, 54, 63, 62
9, 10, 11, 20, 19, 55, 56, 65, 64
10, 11, 12, 21, 20, 56, 57, 66, 65
11, 12, 13, 22, 21, 57, 58, 67, 66
12, 13, 14, 23, 22, 58, 59, 68, 67
13, 14, 15, 24, 23, 59, 60, 69, 68
14, 15, 16, 25, 24, 60, 61, 70, 69
15, 16, 17, 26, 25, 61, 62, 71, 70
16, 17, 18, 27, 26, 62, 63, 72, 71
17, 19, 20, 29, 28, 64, 65, 74, 73
18, 20, 21, 30, 29, 65, 66, 75, 74
19, 21, 22, 31, 30, 66, 67, 76, 75
20, 22, 23, 32, 31, 67, 68, 77, 76
21, 23, 24, 33, 32, 68, 69, 78, 77
22, 24, 25, 34, 33, 69, 70, 79, 78
23, 25, 26, 35, 34, 70, 71, 80, 79
24, 26, 27, 36, 35, 71, 72, 81, 80
25, 28, 29, 38, 37, 73, 74, 83, 82
26, 29, 30, 39, 38, 74, 75, 84, 83
27, 30, 31, 40, 39, 75, 76, 85, 84
28, 31, 32, 41, 40, 76, 77, 86, 85
29, 32, 33, 42, 41, 77, 78, 87, 86
30, 33, 34, 43, 42, 78, 79, 88, 87
31, 34, 35, 44, 43, 79, 80, 89, 88
32, 35, 36, 45, 44, 80, 81, 90, 89
33, 46, 47, 56, 55, 91, 92, 101, 100
34, 47, 48, 57, 56, 92, 93, 102, 101
35, 48, 49, 58, 57, 93, 94, 103, 102
36, 49, 50, 59, 58, 94, 95, 104, 103
37, 50, 51, 60, 59, 95, 96, 105, 104
38, 51, 52, 61, 60, 96, 97, 106, 105
39, 52, 53, 62, 61, 97, 98, 107, 106
40, 53, 54, 63, 62, 98, 99, 108, 107
41, 55, 56, 65, 64, 100, 101, 110, 109
42, 56, 57, 66, 65, 101, 102, 111, 110
43, 57, 58, 67, 66, 102, 103, 112, 111
44, 58, 59, 68, 67, 103, 104, 113, 112
45, 59, 60, 69, 68, 104, 105, 114, 113
46, 60, 61, 70, 69, 105, 106, 115, 114
47, 61, 62, 71, 70, 106, 107, 116, 115
48, 62, 63, 72, 71, 107, 108, 117, 116
49, 64, 65, 74, 73, 109, 110, 119, 118
50, 65, 66, 75, 74, 110, 111, 120, 119
51, 66, 67, 76, 75, 111, 112, 121, 120
52, 67, 68, 77, 76, 112, 113, 122, 121
53, 68, 69, 78, 77, 113, 114, 123, 122
54, 69, 70, 79, 78, 114, 115, 124, 123
55, 70, 71, 80, 79, 115, 116, 125, 124
56, 71, 72, 81, 80, 116, 117, 126, 125
57, 73, 74, 83, 82, 118, 119, 128, 127
58, 74, 75, 84, 83, 119, 120, 129, 128
59, 75, 76, 85, 84, 120, 121, 130, 129
60, 76, 77, 86, 85, 121, 122, 131, 130
61, 77, 78, 87, 86, 122, 123, 132, 131
62, 78, 79, 88, 87, 123, 124, 133, 132
63, 79, 80, 89, 88, 124, 125, 134, 133
64, 80, 81, 90, 89, 125, 126, 135, 134
*ELEMENT, TYPE=C3D8I, ELSET=BLOCK
65, 136, 137, 149, 148, 232, 233, 245, 244
66, 137, 138, 150, 149, 233, 234, 246, 245
67, 138, 139, 151, 150, 234, 235, 247, 246
68, 139, 140, 152, 151, 235, 236, 248, 247
69, 140, 141, 153, 152, 236, 237, 249, 248
70, 141, 142, 154, 153, 237, 238, 250, 249
71, 142, 143, 155, 154, 238, 239, 251, 250
72, 143, 144, 156, 155, 239, 240, 252, 251
73, 144, 145, 157, 156, 240, 241, 253, 252
74, 145, 146, 158, 157, 241, 242, 254, 253
75, 146, 147, 159, 158, 242, 243, 255, 254
76, 148, 149, 161, 160, 244, 245, 257, 256
77, 149, 150, 162, 161, 245, 246, 258, 257
78, 150, 151, 163, 162, 246, 247, 259, 258
79, 151, 152, 164, 163, 247, 248, 260, 259
80, 152, 153, 165, 164, 248, 249, 261, 260
81, 153, 154, 166, 165, 249, 250, 262, 261
82, 154, 155, 167, 166, 250, 251, 263, 262
83, 155, 156, 168, 167, 251, 252, 264, 263
84, 156, 157, 169, 168, 252, 253, 265, 264
85, 157, 158, 170, 169, 253, 254, 266, 265
86, 158, 159, 171, 170, 254, 255, 267, 266
87, 160, 161, 173, 172, 256, 257, 269, 268
88, 161, 162, 174, 173, 257, 258, 270, 269
89, 162, 163, 175, 174, 258, 259, 271, 270
90, 163, 164, 176, 175, 259, 260, 272, 271
91, 164, 165, 177, 176, 260, 261, 273, 272
92, 165, 166, 178, 177, 261, 262, 274, 273
93, 166, 167, 179, 178, 262, 263, 275, 274
94, 167, 168, 180, 179, 263, 264, 276, 275
95, 168, 169, 181, 180, 264, 265, 277, 276
96, 169, 170, 182, 181, 265, 266, 278, 277
97, 170, 171, 183, 182, 266, 267, 279, 278
98, 172, 173, 185, 184, 268, 269, 281, 280
99, 173, 174, 186, 185, 269, 270, 282, 281
100, 174, 175, 187, 186, 270, 271, 283, 282
101, 175, 176, 188, 187, 271, 272, 284, 283
102, 176, 177, 189, 188, 272, 273, 285, 284
103, 177, 178, 190, 189, 273, 274, 286, 285
104, 178, 179, 191, 190, 274, 275, 287, 286
105, 179, 180, 192, 191, 275, 276, 288, 287
106, 180, 181, 193, 192, 276, 277, 289, 288
107, 181, 182, 194, 193, 277, 278, 290, 289
108, 182, 183, 195, 194, 278, 279, 291, 290
109, 184, 185, 197, 196, 280, 281, 293, 292
110, 185, 186, 198, 197, 281, 282, 294, 293
111, 186, 187, 199, 198, 282, 283, 295, 294
112, 187, 188, 200, 199, 283, 284, 296, 295
113, 188, 189, 201, 200, 284, 285, 297, 296
114, 189, 190, 202, 201, 285, 286, 298, 297
115, 190, 191, 203, 202, 286, 287, 299, 298
116, 191, 192, 204, 203, 287, 288, 300, 299
117, 192, 193, 205, 204, 288, 289, 301, 300
118, 193, 194, 206, 205, 289, 290, 302, 301
119, 194, 195, 207, 206, 290, 291, 303, 302
120, 196, 197, 209, 208, 292, 293, 305, 304
121, 197, 198, 210, 209, 293, 294, 306, 305
122, 198, 199, 211, 210, 294, 295, 307, 306
123, 199, 200, 212, 211, 295, 296, 308, 307
124, 200, 201, 213, 212, 296, 297, 309, 308
125, 201, 202, 214, 213, 297, 298, 310, 309
126, 202, 203, 215, 214, 298, 299, 311, 310
127, 203, 204, 216, 215, 299, 300, 312, 311
128, 204, 205, 217, 216, 300, 301, 313, 312
129, 205, 206, 218, 217, 301, 302, 314, 313
130, 206, 207, 219, 218, 302, 303, 315, 314
131, 208, 209, 221, 220, 304, 305, 317, 316
132, 209, 210, 222, 221, 305, 306, 318, 317
133, 210, 211, 223, 222, 306, 307, 319, 318
134, 211, 212, 224, 223, 307, 308, 320, 319
135, 212, 213, 225, 224, 308, 309, 321, 320
136, 213, 214, 226, 225, 309, 310, 322, 321
137, 214, 215, 227, 226, 310, 311, 323, 322
138, 215, 216, 228, 227, 311, 312, 324, 323
139, 216, 217, 229, 228, 312, 313, 325, 324
140, 217, 218, 230, 229, 313, 314, 326, 325
141, 218, 219, 231, 230, 314, 315, 327, 326
142, 232, 233, 245, 244, 328, 329, 341, 340
143, 233, 234, 246, 245, 329, 330, 342, 341
144, 234, 235, 247, 246, 330, 331, 343, 342
145, 235, 236, 248, 247, 331, 332, 344, 343
146, 236, 237, 249, 248, 332, 333, 345, 344
147, 237, 238, 250, 249, 333, 334, 346, 345
148, 238, 239, 251, 250, 334, 335, 347, 346
149, 239, 240, 252, 251, 335, 336, 348, 347
150, 240, 241, 253, 252, 336, 337, 349, 348
151, 241, 242, 254, 253, 337, 338, 350, 349
152, 242, 243, 255, 254, 338, 339, 351, 350
153, 244, 245, 257, 256, 340, 341, 353, 352
154, 245, 246, 258, 257, 341, 342, 354, 353
155, 246, 247, 259, 258, 342, 343, 355, 354
156, 247, 248, 260, 259, 343, 344, 356, 355
157, 248, 249, 261, 260, 344, 345, 357, 356
158, 249, 250, 262, 261, 345, 346, 358, 357
159, 250, 251, 263, 262, 346, 347, 359, 358
160, 251, 252, 264, 263, 347, 348, 360, 359
161, 252, 253, 265, 264, 348, 349, 361, 360
162, 253, 254, 266, 265, 349, 350, 362, 361
163, 254, 255, 267, 266, 350, 351, 363, 362
164, 256, 257, 269, 268, 352, 353, 365, 364
165, 257, 258, 270, 269, 353, 354, 366, 365
166, 258, 259, 271, 270, 354, 355, 367, 366
167, 259, 260, 272, 271, 355, 356, 368, 367
168, 260, 261, 273, 272, 356, 357, 369, 368
169, 261, 262, 274, 273, 357, 358, 370, 369
170, 262, 263, 275, 274, 358, 359, 371, 370
171, 263, 264, 276, 275, 359, 360, 372, 371
172, 264, 265, 277, 276, 360, 361, 373, 372
173, 265, 266, 278, 277, 361, 362, 374, 373
174, 266, 267, 279, 278, 362, 363, 375, 374
175, 268, 269, 281, 280, 364, 365, 377, 376
176, 269, 270, 282, 281, 365, 366, 378, 377
177, 270, 271, 283, 282, 366, 367, 379, 378
178, 271, 272, 284, 283, 367, 368, 380, 379
179, 272, 273, 285, 284, 368, 369, 381, 380
180, 273, 274, 286, 285, 369, 370, 382, 381
181, 274, 275, 287, 286, 370, 371, 383, 382
182, 275, 276, 288, 287, 371, 372, 384, 383
183, 276, 277, 289, 288, 372, 373, 385, 384
184, 277, 278, 290, 289, 373, 374, 386, 385
185, 278, 279, 291, 290, 374, 375, 387, 386
186, 280, 281, 293, 292, 376, 377, 389, 388
187, 281, 282, 294, 293, 377, 378, 390, 389
188, 282, 283, 295, 294, 378, 379, 391, 390
189, 283, 284, 296, 295, 379, 380, 392, 391
190, 284, 285, 297, 296, 380, 381, 393, 392
191, 285, 286, 298, 297, 381, 382, 394, 393
192, 286, 287, 299, 298, 382, 383, 395, 394
193, 287, 288, 300, 299, 383, 384, 396, 395
194, 288, 289, 301, 300, 384, 385, 397, 396
195, 289, 290, 302, 301, 385, 386, 398, 397
196, 290, 291, 303, 302, 386, 387, 399, 398
197, 292, 293, 305, 304, 388, 389, 401, 400
198, 293, 294, 306, 305, 389, 390, 402, 401
199, 294, 295, 307, 306, 390, 391, 403, 402
200, 295, 296, 308, 307, 391, 392, 404, 403
201, 296, 297, 309, 308, 392, 393, 405, 404
202, 297, 298, 310, 309, 393, 394, 406, 405
203, 298, 299, 311, 310, 394, 395, 407, 406
204, 299, 300, 312, 311, 395, 396, 408, 407
205, 300, 301, 313, 312, 396, 397, 409, 408
206, 301, 302, 314, 313, 397, 398, 410, 409
207, 302, 303, 315, 314, 398, 399, 411, 410
208, 304, 305, 317, 316, 400, 401, 413, 412
209, 305, 306, 318, 317, 401, 402, 414, 413
210, 306, 307, 319, 318, 402, 403, 415, 414
211, 307, 308, 320, 319, 403, 404, 416, 415
212, 308, 309, 321, 320, 404, 405, 417, 416
213, 309, 310, 322, 321, 405, 406, 418, 417
214, 310, 311, 323, 322, 406, 407, 419, 418
215, 311, 312, 324, 323, 407, 408, 420, 419
216, 312, 313, 325, 324, 408, 409, 421, 420
217, 313, 314, 326, 325, 409, 410, 422, 421
218, 314, 315, 327, 326, 410, 411, 423, 422
219, 328, 329, 341, 340, 424, 425, 437, 436
220, 329, 330, 342, 341, 425, 426, 438, 437
221, 330, 331, 343, 342, 426, 427, 439, 438
222, 331, 332, 344, 343, 427, 428, 440, 439
223, 332, 333, 345, 344, 428, 429, 441, 440
224, 333, 334, 346, 345, 429, 430, 442, 441
225, 334, 335, 347, 346, 430, 431, 443, 442
226, 335, 336, 348, 347, 431, 432, 444, 443
227, 336, 337, 349, 348, 432, 433, 445, 444
228, 337, 338, 350, 349, 433, 434, 446, 445
229, 338, 339, 351, 350, 434, 435, 447, 446
230, 340, 341, 353, 352, 436, 437, 449, 448
231, 341, 342, 354, 353, 437, 438, 450, 449
232, 342, 343, 355, 354, 438, 439, 451, 450
233, 343, 344, 356, 355, 439, 440, 452, 451
234, 344, 345, 357, 356, 440, 441, 453, 452
235, 345, 346, 358, 357, 441, 442, 454, 453
236, 346, 347, 359, 358, 442, 443, 455, 454
237, 347, 348, 360, 359, 443, 444, 456, 455
238, 348, 349, 361, 360, 444, 445, 457, 456
239, 349, 350, 362, 361, 445, 446, 458, 457
240, 350, 351, 363, 362, 446, 447, 459, 458
241, 352, 353, 365, 364, 448, 449, 461, 460
242, 353, 354, 366, 365, 449, 450, 462, 461
243, 354, 355, 367, 366, 450, 451, 463, 462
244, 355, 356, 368, 367, 451, 452, 464, 463
245, 356, 357, 369, 368, 452, 453, 465, 464
246, 357, 358, 370, 369, 453, 454, 466, 465
247, 358, 359, 371, 370, 454, 455, 467, 466
248, 359, 360, 372, 371, 455, 456, 468, 467
249, 360, 361, 373, 372, 456, 457, 469, 468
250, 361, 362, 374, 373, 457, 458, 470, 469
251, 362, 363, 375, 374, 458, 459, 471, 470
252, 364, 365, 377, 376, 460, 461, 473, 472
253, 365, 366, 378, 377, 461, 462, 474, 473
254, 366, 367, 379, 378, 462, 463, 475, 474
255, 367, 368, 380, 379, 463, 464, 476, 475
256, 368, 369, 381, 380, 464, 465, 477, 476
257, 369, 370, 382, 381, 465, 466, 478, 477
258, 370, 371, 383, 382, 466, 467, 479, 478
259, 371, 372, 384, 383, 467, 468, 480, 479
260, 372, 373, 385, 384, 468, 469, 481, 480
261, 373, 374, 386, 385, 469, 470, 482, 481
262, 374, 375, 387, 386, 470, 471, 483, 482
263, 376, 377, 389, 388, 472, 473, 485, 484
264, 377, 378, 390, 389, 473, 474, 486, 485
265, 378, 379, 391, 390, 474, 475, 487, 486
266, 379, 380, 392, 391, 475, 476, 488, 487
267, 380, 381, 393, 392, 476, 477, 489, 488
268, 381, 382, 394, 393, 477, 478, 490, 489
269, 382, 383, 395, 394, 478, 479, 491, 490
270, 383, 384, 396, 395, 479, 480, 492, 491
271, 384, 385, 397, 396, 480, 481, 493, 492
272, 385, 386, 398, 397, 481, 482, 494, 493
273, 386, 387, 399, 398, 482, 483, 495, 494
274, 388, 389, 401, 400, 484, 485, 497, 496
275, 389, 390, 402, 401, 485, 486, 498, 497
276, 390, 391, 403, 402, 486, 487, 499, 498
277, 391, 392, 404, 403, 487, 488, 500, 499
278, 392, 393, 405, 404, 488, 489, 501, 500
279, 393, 394, 406, 405, 489, 490, 502, 501
280, 394, 395, 407, 406, 490, 491, 503, 502
281, 395, 396, 408, 407, 491, 492, 504, 503
282, 396, 397, 409, 408, 492, 493, 505, 504
283, 397, 398, 410, 409, 493, 494, 506, 505
284, 398, 399, 411, 410, 494, 495, 507, 506
285, 400, 401, 413, 412, 496, 497, 509, 508
286, 401, 402, 414, 413, 497, 498, 510, 509
287, 402, 403, 415, 414, 498, 499, 511, 510
288, 403, 404, 416, 415, 499, 500, 512, 511
289, 404, 405, 417, 416, 500, 501, 513, 512
290, 405, 406, 418, 417, 501, 502, 514, 513
291, 406, 407, 419, 418, 502, 503, 515, 514
292, 407, 408, 420, 419, 503, 504, 516, 515
293, 408, 409, 421, 420, 504, 505, 517, 516
294, 409, 410, 422, 421, 505, 506, 518, 517
295, 410, 411, 423, 422, 506, 507, 519, 518
*NSET, NSET=NFIX
1, 10, 19, 28, 37, 46, 55, 64, 73, 82, 91, 100, 109, 118, 127
*NSET, NSET=NEND
147, 159, 171, 183, 195, 207, 219, 231, 243, 255, 267, 279, 291, 303, 315, 327,
339, 351, 363, 375, 387, 399, 411, 423, 435, 447, 459, 471, 483, 495, 507, 519
*SURFACE, NAME=BASE_TOP
33, S2
34, S2
35, S2
36, S2
37, S2
38, S2
39, S2
40, S2
41, S2
42, S2
43, S2
44, S2
45, S2
46, S2
47, S2
48, S2
49, S2
50, S2
51, S2
52, S2
53, S2
54, S2
55, S2
56, S2
57, S2
58, S2
59, S2
60, S2
61, S2
62, S2
63, S2
64, S2
*SURFACE, NAME=BLOCK_BOTTOM
65, S1
66, S1
67, S1
68, S1
69, S1
70, S1
71, S1
72, S1
73, S1
74, S1
75, S1
76, S1
77, S1
78, S1
79, S1
80, S1
81, S1
82, S1
83, S1
84, S1
85, S1
86, S1
87, S1
88, S1
89, S1
90, S1
91, S1
92, S1
93, S1
94, S1
95, S1
96, S1
97, S1
98, S1
99, S1
100, S1
101, S1
102, S1
103, S1
104, S1
105, S1
106, S1
107, S1
108, S1
109, S1
110, S1
111, S1
112, S1
113, S1
114, S1
115, S1
116, S1
117, S1
118, S1
119, S1
120, S1
121, S1
122, S1
123, S1
124, S1
125, S1
126, S1
127, S1
128, S1
129, S1
130, S1
131, S1
132, S1
133, S1
134, S1
135, S1
136, S1
137, S1
138, S1
139, S1
140, S1
141, S1
*MATERIAL, NAME=STEEL
*ELASTIC
210000., 0.3
*SOLID SECTION, ELSET=BASE, MATERIAL=STEEL
*SOLID SECTION, ELSET=BLOCK, MATERIAL=STEEL
*TIE, NAME=GLUE, POSITION TOLERANCE=0.5
BLOCK_BOTTOM, BASE_TOP
*BOUNDARY
NFIX, 1, 3
*STEP
*STATIC
*CLOAD
147, 3, -50.
159, 3, -50.
171, 3, -50.
183, 3, -50.
195, 3, -50.
207, 3, -50.
219, 3, -50.
231, 3, -50.
243, 3, -50.
255, 3, -50.
267, 3, -50.
279, 3, -50.
291, 3, -50.
303, 3, -50.
315, 3, -50.
327, 3, -50.
339, 3, -50.
351, 3, -50.
363, 3, -50.
375, 3, -50.
387, 3, -50.
399, 3, -50.
411, 3, -50.
423, 3, -50.
435, 3, -50.
447, 3, -50.
459, 3, -50.
471, 3, -50.
483, 3, -50.
495, 3, -50.
507, 3, -50.
519, 3, -50.
*NODE FILE
U
*EL FILE
S
*END STEP
