*HEADING
ccxview sample: cantilever under bending, torsion, both, and pressure
*NODE, NSET=NALL
1, 0, -30, -20
2, 12.5, -30, -20
3, 12.5, -20, -20
4, 0, -20, -20
5, 0, -30, -10
6, 12.5, -30, -10
7, 12.5, -20, -10
8, 0, -20, -10
9, 6.25, -30, -20
10, 12.5, -25, -20
11, 6.25, -20, -20
12, 0, -25, -20
13, 6.25, -30, -10
14, 12.5, -25, -10
15, 6.25, -20, -10
16, 0, -25, -10
17, 0, -30, -15
18, 12.5, -30, -15
19, 12.5, -20, -15
20, 0, -20, -15
21, 0, -30, 0
22, 12.5, -30, 0
23, 12.5, -20, 0
24, 0, -20, 0
25, 6.25, -30, 0
26, 12.5, -25, 0
27, 6.25, -20, 0
28, 0, -25, 0
29, 0, -30, -5
30, 12.5, -30, -5
31, 12.5, -20, -5
32, 0, -20, -5
33, 0, -30, 10
34, 12.5, -30, 10
35, 12.5, -20, 10
36, 0, -20, 10
37, 6.25, -30, 10
38, 12.5, -25, 10
39, 6.25, -20, 10
40, 0, -25, 10
41, 0, -30, 5
42, 12.5, -30, 5
43, 12.5, -20, 5
44, 0, -20, 5
45, 0, -30, 20
46, 12.5, -30, 20
47, 12.5, -20, 20
48, 0, -20, 20
49, 6.25, -30, 20
50, 12.5, -25, 20
51, 6.25, -20, 20
52, 0, -25, 20
53, 0, -30, 15
54, 12.5, -30, 15
55, 12.5, -20, 15
56, 0, -20, 15
57, 12.5, -10, -20
58, 0, -10, -20
59, 12.5, -10, -10
60, 0, -10, -10
61, 12.5, -15, -20
62, 6.25, -10, -20
63, 0, -15, -20
64, 12.5, -15, -10
65, 6.25, -10, -10
66, 0, -15, -10
67, 12.5, -10, -15
68, 0, -10, -15
69, 12.5, -10, 0
70, 0, -10, 0
71, 12.5, -15, 0
72, 6.25, -10, 0
73, 0, -15, 0
74, 12.5, -10, -5
75, 0, -10, -5
76, 12.5, -10, 10
77, 0, -10, 10
78, 12.5, -15, 10
79, 6.25, -10, 10
80, 0, -15, 10
81, 12.5, -10, 5
82, 0, -10, 5
83, 12.5, -10, 20
84, 0, -10, 20
85, 12.5, -15, 20
86, 6.25, -10, 20
87, 0, -15, 20
88, 12.5, -10, 15
89, 0, -10, 15
90, 12.5, 0, -20
91, 0, 0, -20
92, 12.5, 0, -10
93, 0, 0, -10
94, 12.5, -5, -20
95, 6.25, 0, -20
96, 0, -5, -20
97, 12.5, -5, -10
98, 6.25, 0, -10
99, 0, -5, -10
100, 12.5, 0, -15
101, 0, 0, -15
102, 12.5, 0, 0
103, 0, 0, 0
104, 12.5, -5, 0
105, 6.25, 0, 0
106, 0, -5, 0
107, 12.5, 0, -5
108, 0, 0, -5
109, 12.5, 0, 10
110, 0, 0, 10
111, 12.5, -5, 10
112, 6.25, 0, 10
113, 0, -5, 10
114, 12.5, 0, 5
115, 0, 0, 5
116, 12.5, 0, 20
117, 0, 0, 20
118, 12.5, -5, 20
119, 6.25, 0, 20
120, 0, -5, 20
121, 12.5, 0, 15
122, 0, 0, 15
123, 12.5, 10, -20
124, 0, 10, -20
125, 12.5, 10, -10
126, 0, 10, -10
127, 12.5, 5, -20
128, 6.25, 10, -20
129, 0, 5, -20
130, 12.5, 5, -10
131, 6.25, 10, -10
132, 0, 5, -10
133, 12.5, 10, -15
134, 0, 10, -15
135, 12.5, 10, 0
136, 0, 10, 0
137, 12.5, 5, 0
138, 6.25, 10, 0
139, 0, 5, 0
140, 12.5, 10, -5
141, 0, 10, -5
142, 12.5, 10, 10
143, 0, 10, 10
144, 12.5, 5, 10
145, 6.25, 10, 10
146, 0, 5, 10
147, 12.5, 10, 5
148, 0, 10, 5
149, 12.5, 10, 20
150, 0, 10, 20
151, 12.5, 5, 20
152, 6.25, 10, 20
153, 0, 5, 20
154, 12.5, 10, 15
155, 0, 10, 15
156, 12.5, 20, -20
157, 0, 20, -20
158, 12.5, 20, -10
159, 0, 20, -10
160, 12.5, 15, -20
161, 6.25, 20, -20
162, 0, 15, -20
163, 12.5, 15, -10
164, 6.25, 20, -10
165, 0, 15, -10
166, 12.5, 20, -15
167, 0, 20, -15
168, 12.5, 20, 0
169, 0, 20, 0
170, 12.5, 15, 0
171, 6.25, 20, 0
172, 0, 15, 0
173, 12.5, 20, -5
174, 0, 20, -5
175, 12.5, 20, 10
176, 0, 20, 10
177, 12.5, 15, 10
178, 6.25, 20, 10
179, 0, 15, 10
180, 12.5, 20, 5
181, 0, 20, 5
182, 12.5, 20, 20
183, 0, 20, 20
184, 12.5, 15, 20
185, 6.25, 20, 20
186, 0, 15, 20
187, 12.5, 20, 15
188, 0, 20, 15
189, 12.5, 30, -20
190, 0, 30, -20
191, 12.5, 30, -10
192, 0, 30, -10
193, 12.5, 25, -20
194, 6.25, 30, -20
195, 0, 25, -20
196, 12.5, 25, -10
197, 6.25, 30, -10
198, 0, 25, -10
199, 12.5, 30, -15
200, 0, 30, -15
201, 12.5, 30, 0
202, 0, 30, 0
203, 12.5, 25, 0
204, 6.25, 30, 0
205, 0, 25, 0
206, 12.5, 30, -5
207, 0, 30, -5
208, 12.5, 30, 10
209, 0, 30, 10
210, 12.5, 25, 10
211, 6.25, 30, 10
212, 0, 25, 10
213, 12.5, 30, 5
214, 0, 30, 5
215, 12.5, 30, 20
216, 0, 30, 20
217, 12.5, 25, 20
218, 6.25, 30, 20
219, 0, 25, 20
220, 12.5, 30, 15
221, 0, 30, 15
222, 25, -30, -20
223, 25, -20, -20
224, 25, -30, -10
225, 25, -20, -10
226, 18.75, -30, -20
227, 25, -25, -20
228, 18.75, -20, -20
229, 18.75, -30, -10
230, 25, -25, -10
231, 18.75, -20, -10
232, 25, -30, -15
233, 25, -20, -15
234, 25, -30, 0
235, 25, -20, 0
236, 18.75, -30, 0
237, 25, -25, 0
238, 18.75, -20, 0
239, 25, -30, -5
240, 25, -20, -5
241, 25, -30, 10
242, 25, -20, 10
243, 18.75, -30, 10
244, 25, -25, 10
245, 18.75, -20, 10
246, 25, -30, 5
247, 25, -20, 5
248, 25, -30, 20
249, 25, -20, 20
250, 18.75, -30, 20
251, 25, -25, 20
252, 18.75, -20, 20
253, 25, -30, 15
254, 25, -20, 15
255, 25, -10, -20
256, 25, -10, -10
257, 25, -15, -20
258, 18.75, -10, -20
259, 25, -15, -10
260, 18.75, -10, -10
261, 25, -10, -15
262, 25, -10, 0
263, 25, -15, 0
264, 18.75, -10, 0
265, 25, -10, -5
266, 25, -10, 10
267, 25, -15, 10
268, 18.75, -10, 10
269, 25, -10, 5
270, 25, -10, 20
271, 25, -15, 20
272, 18.75, -10, 20
273, 25, -10, 15
274, 25, 0, -20
275, 25, 0, -10
276, 25, -5, -20
277, 18.75, 0, -20
278, 25, -5, -10
279, 18.75, 0, -10
280, 25, 0, -15
281, 25, 0, 0
282, 25, -5, 0
283, 18.75, 0, 0
284, 25, 0, -5
285, 25, 0, 10
286, 25, -5, 10
287, 18.75, 0, 10
288, 25, 0, 5
289, 25, 0, 20
290, 25, -5, 20
291, 18.75, 0, 20
292, 25, 0, 15
293, 25, 10, -20
294, 25, 10, -10
295, 25, 5, -20
296, 18.75, 10, -20
297, 25, 5, -10
298, 18.75, 10, -10
299, 25, 10, -15
300, 25, 10, 0
301, 25, 5, 0
302, 18.75, 10, 0
303, 25, 10, -5
304, 25, 10, 10
305, 25, 5, 10
306, 18.75, 10, 10
307, 25, 10, 5
308, 25, 10, 20
309, 25, 5, 20
310, 18.75, 10, 20
311, 25, 10, 15
312, 25, 20, -20
313, 25, 20, -10
314, 25, 15, -20
315, 18.75, 20, -20
316, 25, 15, -10
317, 18.75, 20, -10
318, 25, 20, -15
319, 25, 20, 0
320, 25, 15, 0
321, 18.75, 20, 0
322, 25, 20, -5
323, 25, 20, 10
324, 25, 15, 10
325, 18.75, 20, 10
326, 25, 20, 5
327, 25, 20, 20
328, 25, 15, 20
329, 18.75, 20, 20
330, 25, 20, 15
331, 25, 30, -20
332, 25, 30, -10
333, 25, 25, -20
334, 18.75, 30, -20
335, 25, 25, -10
336, 18.75, 30, -10
337, 25, 30, -15
338, 25, 30, 0
339, 25, 25, 0
340, 18.75, 30, 0
341, 25, 30, -5
342, 25, 30, 10
343, 25, 25, 10
344, 18.75, 30, 10
345, 25, 30, 5
346, 25, 30, 20
347, 25, 25, 20
348, 18.75, 30, 20
349, 25, 30, 15
350, 37.5, -30, -20
351, 37.5, -20, -20
352, 37.5, -30, -10
353, 37.5, -20, -10
354, 31.25, -30, -20
355, 37.5, -25, -20
356, 31.25, -20, -20
357, 31.25, -30, -10
358, 37.5, -25, -10
359, 31.25, -20, -10
360, 37.5, -30, -15
361, 37.5, -20, -15
362, 37.5, -30, 0
363, 37.5, -20, 0
364, 31.25, -30, 0
365, 37.5, -25, 0
366, 31.25, -20, 0
367, 37.5, -30, -5
368, 37.5, -20, -5
369, 37.5, -30, 10
370, 37.5, -20, 10
371, 31.25, -30, 10
372, 37.5, -25, 10
373, 31.25, -20, 10
374, 37.5, -30, 5
375, 37.5, -20, 5
376, 37.5, -30, 20
377, 37.5, -20, 20
378, 31.25, -30, 20
379, 37.5, -25, 20
380, 31.25, -20, 20
381, 37.5, -30, 15
382, 37.5, -20, 15
383, 37.5, -10, -20
384, 37.5, -10, -10
385, 37.5, -15, -20
386, 31.25, -10, -20
387, 37.5, -15, -10
388, 31.25, -10, -10
389, 37.5, -10, -15
390, 37.5, -10, 0
391, 37.5, -15, 0
392, 31.25, -10, 0
393, 37.5, -10, -5
394, 37.5, -10, 10
395, 37.5, -15, 10
396, 31.25, -10, 10
397, 37.5, -10, 5
398, 37.5, -10, 20
399, 37.5, -15, 20
400, 31.25, -10, 20
401, 37.5, -10, 15
402, 37.5, 0, -20
403, 37.5, 0, -10
404, 37.5, -5, -20
405, 31.25, 0, -20
406, 37.5, -5, -10
407, 31.25, 0, -10
408, 37.5, 0, -15
409, 37.5, 0, 0
410, 37.5, -5, 0
411, 31.25, 0, 0
412, 37.5, 0, -5
413, 37.5, 0, 10
414, 37.5, -5, 10
415, 31.25, 0, 10
416, 37.5, 0, 5
417, 37.5, 0, 20
418, 37.5, -5, 20
419, 31.25, 0, 20
420, 37.5, 0, 15
421, 37.5, 10, -20
422, 37.5, 10, -10
423, 37.5, 5, -20
424, 31.25, 10, -20
425, 37.5, 5, -10
426, 31.25, 10, -10
427, 37.5, 10, -15
428, 37.5, 10, 0
429, 37.5, 5, 0
430, 31.25, 10, 0
431, 37.5, 10, -5
432, 37.5, 10, 10
433, 37.5, 5, 10
434, 31.25, 10, 10
435, 37.5, 10, 5
436, 37.5, 10, 20
437, 37.5, 5, 20
438, 31.25, 10, 20
439, 37.5, 10, 15
440, 37.5, 20, -20
441, 37.5, 20, -10
442, 37.5, 15, -20
443, 31.25, 20, -20
444, 37.5, 15, -10
445, 31.25, 20, -10
446, 37.5, 20, -15
447, 37.5, 20, 0
448, 37.5, 15, 0
449, 31.25, 20, 0
450, 37.5, 20, -5
451, 37.5, 20, 10
452, 37.5, 15, 10
453, 31.25, 20, 10
454, 37.5, 20, 5
455, 37.5, 20, 20
456, 37.5, 15, 20
457, 31.25, 20, 20
458, 37.5, 20, 15
459, 37.5, 30, -20
460, 37.5, 30, -10
461, 37.5, 25, -20
462, 31.25, 30, -20
463, 37.5, 25, -10
464, 31.25, 30, -10
465, 37.5, 30, -15
466, 37.5, 30, 0
467, 37.5, 25, 0
468, 31.25, 30, 0
469, 37.5, 30, -5
470, 37.5, 30, 10
471, 37.5, 25, 10
472, 31.25, 30, 10
473, 37.5, 30, 5
474, 37.5, 30, 20
475, 37.5, 25, 20
476, 31.25, 30, 20
477, 37.5, 30, 15
478, 50, -30, -20
479, 50, -20, -20
480, 50, -30, -10
481, 50, -20, -10
482, 43.75, -30, -20
483, 50, -25, -20
484, 43.75, -20, -20
485, 43.75, -30, -10
486, 50, -25, -10
487, 43.75, -20, -10
488, 50, -30, -15
489, 50, -20, -15
490, 50, -30, 0
491, 50, -20, 0
492, 43.75, -30, 0
493, 50, -25, 0
494, 43.75, -20, 0
495, 50, -30, -5
496, 50, -20, -5
497, 50, -30, 10
498, 50, -20, 10
499, 43.75, -30, 10
500, 50, -25, 10
501, 43.75, -20, 10
502, 50, -30, 5
503, 50, -20, 5
504, 50, -30, 20
505, 50, -20, 20
506, 43.75, -30, 20
507, 50, -25, 20
508, 43.75, -20, 20
509, 50, -30, 15
510, 50, -20, 15
511, 50, -10, -20
512, 50, -10, -10
513, 50, -15, -20
514, 43.75, -10, -20
515, 50, -15, -10
516, 43.75, -10, -10
517, 50, -10, -15
518, 50, -10, 0
519, 50, -15, 0
520, 43.75, -10, 0
521, 50, -10, -5
522, 50, -10, 10
523, 50, -15, 10
524, 43.75, -10, 10
525, 50, -10, 5
526, 50, -10, 20
527, 50, -15, 20
528, 43.75, -10, 20
529, 50, -10, 15
530, 50, 0, -20
531, 50, 0, -10
532, 50, -5, -20
533, 43.75, 0, -20
534, 50, -5, -10
535, 43.75, 0, -10
536, 50, 0, -15
537, 50, 0, 0
538, 50, -5, 0
539, 43.75, 0, 0
540, 50, 0, -5
541, 50, 0, 10
542, 50, -5, 10
543, 43.75, 0, 10
544, 50, 0, 5
545, 50, 0, 20
546, 50, -5, 20
547, 43.75, 0, 20
548, 50, 0, 15
549, 50, 10, -20
550, 50, 10, -10
551, 50, 5, -20
552, 43.75, 10, -20
553, 50, 5, -10
554, 43.75, 10, -10
555, 50, 10, -15
556, 50, 10, 0
557, 50, 5, 0
558, 43.75, 10, 0
559, 50, 10, -5
560, 50, 10, 10
561, 50, 5, 10
562, 43.75, 10, 10
563, 50, 10, 5
564, 50, 10, 20
565, 50, 5, 20
566, 43.75, 10, 20
567, 50, 10, 15
568, 50, 20, -20
569, 50, 20, -10
570, 50, 15, -20
571, 43.75, 20, -20
572, 50, 15, -10
573, 43.75, 20, -10
574, 50, 20, -15
575, 50, 20, 0
576, 50, 15, 0
577, 43.75, 20, 0
578, 50, 20, -5
579, 50, 20, 10
580, 50, 15, 10
581, 43.75, 20, 10
582, 50, 20, 5
583, 50, 20, 20
584, 50, 15, 20
585, 43.75, 20, 20
586, 50, 20, 15
587, 50, 30, -20
588, 50, 30, -10
589, 50, 25, -20
590, 43.75, 30, -20
591, 50, 25, -10
592, 43.75, 30, -10
593, 50, 30, -15
594, 50, 30, 0
595, 50, 25, 0
596, 43.75, 30, 0
597, 50, 30, -5
598, 50, 30, 10
599, 50, 25, 10
600, 43.75, 30, 10
601, 50, 30, 5
602, 50, 30, 20
603, 50, 25, 20
604, 43.75, 30, 20
605, 50, 30, 15
606, 62.5, -30, -20
607, 62.5, -20, -20
608, 62.5, -30, -10
609, 62.5, -20, -10
610, 56.25, -30, -20
611, 62.5, -25, -20
612, 56.25, -20, -20
613, 56.25, -30, -10
614, 62.5, -25, -10
615, 56.25, -20, -10
616, 62.5, -30, -15
617, 62.5, -20, -15
618, 62.5, -30, 0
619, 62.5, -20, 0
620, 56.25, -30, 0
621, 62.5, -25, 0
622, 56.25, -20, 0
623, 62.5, -30, -5
624, 62.5, -20, -5
625, 62.5, -30, 10
626, 62.5, -20, 10
627, 56.25, -30, 10
628, 62.5, -25, 10
629, 56.25, -20, 10
630, 62.5, -30, 5
631, 62.5, -20, 5
632, 62.5, -30, 20
633, 62.5, -20, 20
634, 56.25, -30, 20
635, 62.5, -25, 20
636, 56.25, -20, 20
637, 62.5, -30, 15
638, 62.5, -20, 15
639, 62.5, -10, -20
640, 62.5, -10, -10
641, 62.5, -15, -20
642, 56.25, -10, -20
643, 62.5, -15, -10
644, 56.25, -10, -10
645, 62.5, -10, -15
646, 62.5, -10, 0
647, 62.5, -15, 0
648, 56.25, -10, 0
649, 62.5, -10, -5
650, 62.5, -10, 10
651, 62.5, -15, 10
652, 56.25, -10, 10
653, 62.5, -10, 5
654, 62.5, -10, 20
655, 62.5, -15, 20
656, 56.25, -10, 20
657, 62.5, -10, 15
658, 62.5, 0, -20
659, 62.5, 0, -10
660, 62.5, -5, -20
661, 56.25, 0, -20
662, 62.5, -5, -10
663, 56.25, 0, -10
664, 62.5, 0, -15
665, 62.5, 0, 0
666, 62.5, -5, 0
667, 56.25, 0, 0
668, 62.5, 0, -5
669, 62.5, 0, 10
670, 62.5, -5, 10
671, 56.25, 0, 10
672, 62.5, 0, 5
673, 62.5, 0, 20
674, 62.5, -5, 20
675, 56.25, 0, 20
676, 62.5, 0, 15
677, 62.5, 10, -20
678, 62.5, 10, -10
679, 62.5, 5, -20
680, 56.25, 10, -20
681, 62.5, 5, -10
682, 56.25, 10, -10
683, 62.5, 10, -15
684, 62.5, 10, 0
685, 62.5, 5, 0
686, 56.25, 10, 0
687, 62.5, 10, -5
688, 62.5, 10, 10
689, 62.5, 5, 10
690, 56.25, 10, 10
691, 62.5, 10, 5
692, 62.5, 10, 20
693, 62.5, 5, 20
694, 56.25, 10, 20
695, 62.5, 10, 15
696, 62.5, 20, -20
697, 62.5, 20, -10
698, 62.5, 15, -20
699, 56.25, 20, -20
700, 62.5, 15, -10
701, 56.25, 20, -10
702, 62.5, 20, -15
703, 62.5, 20, 0
704, 62.5, 15, 0
705, 56.25, 20, 0
706, 62.5, 20, -5
707, 62.5, 20, 10
708, 62.5, 15, 10
709, 56.25, 20, 10
710, 62.5, 20, 5
711, 62.5, 20, 20
712, 62.5, 15, 20
713, 56.25, 20, 20
714, 62.5, 20, 15
715, 62.5, 30, -20
716, 62.5, 30, -10
717, 62.5, 25, -20
718, 56.25, 30, -20
719, 62.5, 25, -10
720, 56.25, 30, -10
721, 62.5, 30, -15
722, 62.5, 30, 0
723, 62.5, 25, 0
724, 56.25, 30, 0
725, 62.5, 30, -5
726, 62.5, 30, 10
727, 62.5, 25, 10
728, 56.25, 30, 10
729, 62.5, 30, 5
730, 62.5, 30, 20
731, 62.5, 25, 20
732, 56.25, 30, 20
733, 62.5, 30, 15
734, 75, -30, -20
735, 75, -20, -20
736, 75, -30, -10
737, 75, -20, -10
738, 68.75, -30, -20
739, 75, -25, -20
740, 68.75, -20, -20
741, 68.75, -30, -10
742, 75, -25, -10
743, 68.75, -20, -10
744, 75, -30, -15
745, 75, -20, -15
746, 75, -30, 0
747, 75, -20, 0
748, 68.75, -30, 0
749, 75, -25, 0
750, 68.75, -20, 0
751, 75, -30, -5
752, 75, -20, -5
753, 75, -30, 10
754, 75, -20, 10
755, 68.75, -30, 10
756, 75, -25, 10
757, 68.75, -20, 10
758, 75, -30, 5
759, 75, -20, 5
760, 75, -30, 20
761, 75, -20, 20
762, 68.75, -30, 20
763, 75, -25, 20
764, 68.75, -20, 20
765, 75, -30, 15
766, 75, -20, 15
767, 75, -10, -20
768, 75, -10, -10
769, 75, -15, -20
770, 68.75, -10, -20
771, 75, -15, -10
772, 68.75, -10, -10
773, 75, -10, -15
774, 75, -10, 0
775, 75, -15, 0
776, 68.75, -10, 0
777, 75, -10, -5
778, 75, -10, 10
779, 75, -15, 10
780, 68.75, -10, 10
781, 75, -10, 5
782, 75, -10, 20
783, 75, -15, 20
784, 68.75, -10, 20
785, 75, -10, 15
786, 75, 0, -20
787, 75, 0, -10
788, 75, -5, -20
789, 68.75, 0, -20
790, 75, -5, -10
791, 68.75, 0, -10
792, 75, 0, -15
793, 75, 0, 0
794, 75, -5, 0
795, 68.75, 0, 0
796, 75, 0, -5
797, 75, 0, 10
798, 75, -5, 10
799, 68.75, 0, 10
800, 75, 0, 5
801, 75, 0, 20
802, 75, -5, 20
803, 68.75, 0, 20
804, 75, 0, 15
805, 75, 10, -20
806, 75, 10, -10
807, 75, 5, -20
808, 68.75, 10, -20
809, 75, 5, -10
810, 68.75, 10, -10
811, 75, 10, -15
812, 75, 10, 0
813, 75, 5, 0
814, 68.75, 10, 0
815, 75, 10, -5
816, 75, 10, 10
817, 75, 5, 10
818, 68.75, 10, 10
819, 75, 10, 5
820, 75, 10, 20
821, 75, 5, 20
822, 68.75, 10, 20
823, 75, 10, 15
824, 75, 20, -20
825, 75, 20, -10
826, 75, 15, -20
827, 68.75, 20, -20
828, 75, 15, -10
829, 68.75, 20, -10
830, 75, 20, -15
831, 75, 20, 0
832, 75, 15, 0
833, 68.75, 20, 0
834, 75, 20, -5
835, 75, 20, 10
836, 75, 15, 10
837, 68.75, 20, 10
838, 75, 20, 5
839, 75, 20, 20
840, 75, 15, 20
841, 68.75, 20, 20
842, 75, 20, 15
843, 75, 30, -20
844, 75, 30, -10
845, 75, 25, -20
846, 68.75, 30, -20
847, 75, 25, -10
848, 68.75, 30, -10
849, 75, 30, -15
850, 75, 30, 0
851, 75, 25, 0
852, 68.75, 30, 0
853, 75, 30, -5
854, 75, 30, 10
855, 75, 25, 10
856, 68.75, 30, 10
857, 75, 30, 5
858, 75, 30, 20
859, 75, 25, 20
860, 68.75, 30, 20
861, 75, 30, 15
862, 87.5, -30, -20
863, 87.5, -20, -20
864, 87.5, -30, -10
865, 87.5, -20, -10
866, 81.25, -30, -20
867, 87.5, -25, -20
868, 81.25, -20, -20
869, 81.25, -30, -10
870, 87.5, -25, -10
871, 81.25, -20, -10
872, 87.5, -30, -15
873, 87.5, -20, -15
874, 87.5, -30, 0
875, 87.5, -20, 0
876, 81.25, -30, 0
877, 87.5, -25, 0
878, 81.25, -20, 0
879, 87.5, -30, -5
880, 87.5, -20, -5
881, 87.5, -30, 10
882, 87.5, -20, 10
883, 81.25, -30, 10
884, 87.5, -25, 10
885, 81.25, -20, 10
886, 87.5, -30, 5
887, 87.5, -20, 5
888, 87.5, -30, 20
889, 87.5, -20, 20
890, 81.25, -30, 20
891, 87.5, -25, 20
892, 81.25, -20, 20
893, 87.5, -30, 15
894, 87.5, -20, 15
895, 87.5, -10, -20
896, 87.5, -10, -10
897, 87.5, -15, -20
898, 81.25, -10, -20
899, 87.5, -15, -10
900, 81.25, -10, -10
901, 87.5, -10, -15
902, 87.5, -10, 0
903, 87.5, -15, 0
904, 81.25, -10, 0
905, 87.5, -10, -5
906, 87.5, -10, 10
907, 87.5, -15, 10
908, 81.25, -10, 10
909, 87.5, -10, 5
910, 87.5, -10, 20
911, 87.5, -15, 20
912, 81.25, -10, 20
913, 87.5, -10, 15
914, 87.5, 0, -20
915, 87.5, 0, -10
916, 87.5, -5, -20
917, 81.25, 0, -20
918, 87.5, -5, -10
919, 81.25, 0, -10
920, 87.5, 0, -15
921, 87.5, 0, 0
922, 87.5, -5, 0
923, 81.25, 0, 0
924, 87.5, 0, -5
925, 87.5, 0, 10
926, 87.5, -5, 10
927, 81.25, 0, 10
928, 87.5, 0, 5
929, 87.5, 0, 20
930, 87.5, -5, 20
931, 81.25, 0, 20
932, 87.5, 0, 15
933, 87.5, 10, -20
934, 87.5, 10, -10
935, 87.5, 5, -20
936, 81.25, 10, -20
937, 87.5, 5, -10
938, 81.25, 10, -10
939, 87.5, 10, -15
940, 87.5, 10, 0
941, 87.5, 5, 0
942, 81.25, 10, 0
943, 87.5, 10, -5
944, 87.5, 10, 10
945, 87.5, 5, 10
946, 81.25, 10, 10
947, 87.5, 10, 5
948, 87.5, 10, 20
949, 87.5, 5, 20
950, 81.25, 10, 20
951, 87.5, 10, 15
952, 87.5, 20, -20
953, 87.5, 20, -10
954, 87.5, 15, -20
955, 81.25, 20, -20
956, 87.5, 15, -10
957, 81.25, 20, -10
958, 87.5, 20, -15
959, 87.5, 20, 0
960, 87.5, 15, 0
961, 81.25, 20, 0
962, 87.5, 20, -5
963, 87.5, 20, 10
964, 87.5, 15, 10
965, 81.25, 20, 10
966, 87.5, 20, 5
967, 87.5, 20, 20
968, 87.5, 15, 20
969, 81.25, 20, 20
970, 87.5, 20, 15
971, 87.5, 30, -20
972, 87.5, 30, -10
973, 87.5, 25, -20
974, 81.25, 30, -20
975, 87.5, 25, -10
976, 81.25, 30, -10
977, 87.5, 30, -15
978, 87.5, 30, 0
979, 87.5, 25, 0
980, 81.25, 30, 0
981, 87.5, 30, -5
982, 87.5, 30, 10
983, 87.5, 25, 10
984, 81.25, 30, 10
985, 87.5, 30, 5
986, 87.5, 30, 20
987, 87.5, 25, 20
988, 81.25, 30, 20
989, 87.5, 30, 15
990, 100, -30, -20
991, 100, -20, -20
992, 100, -30, -10
993, 100, -20, -10
994, 93.75, -30, -20
995, 100, -25, -20
996, 93.75, -20, -20
997, 93.75, -30, -10
998, 100, -25, -10
999, 93.75, -20, -10
1000, 100, -30, -15
1001, 100, -20, -15
1002, 100, -30, 0
1003, 100, -20, 0
1004, 93.75, -30, 0
1005, 100, -25, 0
1006, 93.75, -20, 0
1007, 100, -30, -5
1008, 100, -20, -5
1009, 100, -30, 10
1010, 100, -20, 10
1011, 93.75, -30, 10
1012, 100, -25, 10
1013, 93.75, -20, 10
1014, 100, -30, 5
1015, 100, -20, 5
1016, 100, -30, 20
1017, 100, -20, 20
1018, 93.75, -30, 20
1019, 100, -25, 20
1020, 93.75, -20, 20
1021, 100, -30, 15
1022, 100, -20, 15
1023, 100, -10, -20
1024, 100, -10, -10
1025, 100, -15, -20
1026, 93.75, -10, -20
1027, 100, -15, -10
1028, 93.75, -10, -10
1029, 100, -10, -15
1030, 100, -10, 0
1031, 100, -15, 0
1032, 93.75, -10, 0
1033, 100, -10, -5
1034, 100, -10, 10
1035, 100, -15, 10
1036, 93.75, -10, 10
1037, 100, -10, 5
1038, 100, -10, 20
1039, 100, -15, 20
1040, 93.75, -10, 20
1041, 100, -10, 15
1042, 100, 0, -20
1043, 100, 0, -10
1044, 100, -5, -20
1045, 93.75, 0, -20
1046, 100, -5, -10
1047, 93.75, 0, -10
1048, 100, 0, -15
1049, 100, 0, 0
1050, 100, -5, 0
1051, 93.75, 0, 0
1052, 100, 0, -5
1053, 100, 0, 10
1054, 100, -5, 10
1055, 93.75, 0, 10
1056, 100, 0, 5
1057, 100, 0, 20
1058, 100, -5, 20
1059, 93.75, 0, 20
1060, 100, 0, 15
1061, 100, 10, -20
1062, 100, 10, -10
1063, 100, 5, -20
1064, 93.75, 10, -20
1065, 100, 5, -10
1066, 93.75, 10, -10
1067, 100, 10, -15
1068, 100, 10, 0
1069, 100, 5, 0
1070, 93.75, 10, 0
1071, 100, 10, -5
1072, 100, 10, 10
1073, 100, 5, 10
1074, 93.75, 10, 10
1075, 100, 10, 5
1076, 100, 10, 20
1077, 100, 5, 20
1078, 93.75, 10, 20
1079, 100, 10, 15
1080, 100, 20, -20
1081, 100, 20, -10
1082, 100, 15, -20
1083, 93.75, 20, -20
1084, 100, 15, -10
1085, 93.75, 20, -10
1086, 100, 20, -15
1087, 100, 20, 0
1088, 100, 15, 0
1089, 93.75, 20, 0
1090, 100, 20, -5
1091, 100, 20, 10
1092, 100, 15, 10
1093, 93.75, 20, 10
1094, 100, 20, 5
1095, 100, 20, 20
1096, 100, 15, 20
1097, 93.75, 20, 20
1098, 100, 20, 15
1099, 100, 30, -20
1100, 100, 30, -10
1101, 100, 25, -20
1102, 93.75, 30, -20
1103, 100, 25, -10
1104, 93.75, 30, -10
1105, 100, 30, -15
1106, 100, 30, 0
1107, 100, 25, 0
1108, 93.75, 30, 0
1109, 100, 30, -5
1110, 100, 30, 10
1111, 100, 25, 10
1112, 93.75, 30, 10
1113, 100, 30, 5
1114, 100, 30, 20
1115, 100, 25, 20
1116, 93.75, 30, 20
1117, 100, 30, 15
1118, 112.5, -30, -20
1119, 112.5, -20, -20
1120, 112.5, -30, -10
1121, 112.5, -20, -10
1122, 106.25, -30, -20
1123, 112.5, -25, -20
1124, 106.25, -20, -20
1125, 106.25, -30, -10
1126, 112.5, -25, -10
1127, 106.25, -20, -10
1128, 112.5, -30, -15
1129, 112.5, -20, -15
1130, 112.5, -30, 0
1131, 112.5, -20, 0
1132, 106.25, -30, 0
1133, 112.5, -25, 0
1134, 106.25, -20, 0
1135, 112.5, -30, -5
1136, 112.5, -20, -5
1137, 112.5, -30, 10
1138, 112.5, -20, 10
1139, 106.25, -30, 10
1140, 112.5, -25, 10
1141, 106.25, -20, 10
1142, 112.5, -30, 5
1143, 112.5, -20, 5
1144, 112.5, -30, 20
1145, 112.5, -20, 20
1146, 106.25, -30, 20
1147, 112.5, -25, 20
1148, 106.25, -20, 20
1149, 112.5, -30, 15
1150, 112.5, -20, 15
1151, 112.5, -10, -20
1152, 112.5, -10, -10
1153, 112.5, -15, -20
1154, 106.25, -10, -20
1155, 112.5, -15, -10
1156, 106.25, -10, -10
1157, 112.5, -10, -15
1158, 112.5, -10, 0
1159, 112.5, -15, 0
1160, 106.25, -10, 0
1161, 112.5, -10, -5
1162, 112.5, -10, 10
1163, 112.5, -15, 10
1164, 106.25, -10, 10
1165, 112.5, -10, 5
1166, 112.5, -10, 20
1167, 112.5, -15, 20
1168, 106.25, -10, 20
1169, 112.5, -10, 15
1170, 112.5, 0, -20
1171, 112.5, 0, -10
1172, 112.5, -5, -20
1173, 106.25, 0, -20
1174, 112.5, -5, -10
1175, 106.25, 0, -10
1176, 112.5, 0, -15
1177, 112.5, 0, 0
1178, 112.5, -5, 0
1179, 106.25, 0, 0
1180, 112.5, 0, -5
1181, 112.5, 0, 10
1182, 112.5, -5, 10
1183, 106.25, 0, 10
1184, 112.5, 0, 5
1185, 112.5, 0, 20
1186, 112.5, -5, 20
1187, 106.25, 0, 20
1188, 112.5, 0, 15
1189, 112.5, 10, -20
1190, 112.5, 10, -10
1191, 112.5, 5, -20
1192, 106.25, 10, -20
1193, 112.5, 5, -10
1194, 106.25, 10, -10
1195, 112.5, 10, -15
1196, 112.5, 10, 0
1197, 112.5, 5, 0
1198, 106.25, 10, 0
1199, 112.5, 10, -5
1200, 112.5, 10, 10
1201, 112.5, 5, 10
1202, 106.25, 10, 10
1203, 112.5, 10, 5
1204, 112.5, 10, 20
1205, 112.5, 5, 20
1206, 106.25, 10, 20
1207, 112.5, 10, 15
1208, 112.5, 20, -20
1209, 112.5, 20, -10
1210, 112.5, 15, -20
1211, 106.25, 20, -20
1212, 112.5, 15, -10
1213, 106.25, 20, -10
1214, 112.5, 20, -15
1215, 112.5, 20, 0
1216, 112.5, 15, 0
1217, 106.25, 20, 0
1218, 112.5, 20, -5
1219, 112.5, 20, 10
1220, 112.5, 15, 10
1221, 106.25, 20, 10
1222, 112.5, 20, 5
1223, 112.5, 20, 20
1224, 112.5, 15, 20
1225, 106.25, 20, 20
1226, 112.5, 20, 15
1227, 112.5, 30, -20
1228, 112.5, 30, -10
1229, 112.5, 25, -20
1230, 106.25, 30, -20
1231, 112.5, 25, -10
1232, 106.25, 30, -10
1233, 112.5, 30, -15
1234, 112.5, 30, 0
1235, 112.5, 25, 0
1236, 106.25, 30, 0
1237, 112.5, 30, -5
1238, 112.5, 30, 10
1239, 112.5, 25, 10
1240, 106.25, 30, 10
1241, 112.5, 30, 5
1242, 112.5, 30, 20
1243, 112.5, 25, 20
1244, 106.25, 30, 20
1245, 112.5, 30, 15
1246, 125, -30, -20
1247, 125, -20, -20
1248, 125, -30, -10
1249, 125, -20, -10
1250, 118.75, -30, -20
1251, 125, -25, -20
1252, 118.75, -20, -20
1253, 118.75, -30, -10
1254, 125, -25, -10
1255, 118.75, -20, -10
1256, 125, -30, -15
1257, 125, -20, -15
1258, 125, -30, 0
1259, 125, -20, 0
1260, 118.75, -30, 0
1261, 125, -25, 0
1262, 118.75, -20, 0
1263, 125, -30, -5
1264, 125, -20, -5
1265, 125, -30, 10
1266, 125, -20, 10
1267, 118.75, -30, 10
1268, 125, -25, 10
1269, 118.75, -20, 10
1270, 125, -30, 5
1271, 125, -20, 5
1272, 125, -30, 20
1273, 125, -20, 20
1274, 118.75, -30, 20
1275, 125, -25, 20
1276, 118.75, -20, 20
1277, 125, -30, 15
1278, 125, -20, 15
1279, 125, -10, -20
1280, 125, -10, -10
1281, 125, -15, -20
1282, 118.75, -10, -20
1283, 125, -15, -10
1284, 118.75, -10, -10
1285, 125, -10, -15
1286, 125, -10, 0
1287, 125, -15, 0
1288, 118.75, -10, 0
1289, 125, -10, -5
1290, 125, -10, 10
1291, 125, -15, 10
1292, 118.75, -10, 10
1293, 125, -10, 5
1294, 125, -10, 20
1295, 125, -15, 20
1296, 118.75, -10, 20
1297, 125, -10, 15
1298, 125, 0, -20
1299, 125, 0, -10
1300, 125, -5, -20
1301, 118.75, 0, -20
1302, 125, -5, -10
1303, 118.75, 0, -10
1304, 125, 0, -15
1305, 125, 0, 0
1306, 125, -5, 0
1307, 118.75, 0, 0
1308, 125, 0, -5
1309, 125, 0, 10
1310, 125, -5, 10
1311, 118.75, 0, 10
1312, 125, 0, 5
1313, 125, 0, 20
1314, 125, -5, 20
1315, 118.75, 0, 20
1316, 125, 0, 15
1317, 125, 10, -20
1318, 125, 10, -10
1319, 125, 5, -20
1320, 118.75, 10, -20
1321, 125, 5, -10
1322, 118.75, 10, -10
1323, 125, 10, -15
1324, 125, 10, 0
1325, 125, 5, 0
1326, 118.75, 10, 0
1327, 125, 10, -5
1328, 125, 10, 10
1329, 125, 5, 10
1330, 118.75, 10, 10
1331, 125, 10, 5
1332, 125, 10, 20
1333, 125, 5, 20
1334, 118.75, 10, 20
1335, 125, 10, 15
1336, 125, 20, -20
1337, 125, 20, -10
1338, 125, 15, -20
1339, 118.75, 20, -20
1340, 125, 15, -10
1341, 118.75, 20, -10
1342, 125, 20, -15
1343, 125, 20, 0
1344, 125, 15, 0
1345, 118.75, 20, 0
1346, 125, 20, -5
1347, 125, 20, 10
1348, 125, 15, 10
1349, 118.75, 20, 10
1350, 125, 20, 5
1351, 125, 20, 20
1352, 125, 15, 20
1353, 118.75, 20, 20
1354, 125, 20, 15
1355, 125, 30, -20
1356, 125, 30, -10
1357, 125, 25, -20
1358, 118.75, 30, -20
1359, 125, 25, -10
1360, 118.75, 30, -10
1361, 125, 30, -15
1362, 125, 30, 0
1363, 125, 25, 0
1364, 118.75, 30, 0
1365, 125, 30, -5
1366, 125, 30, 10
1367, 125, 25, 10
1368, 118.75, 30, 10
1369, 125, 30, 5
1370, 125, 30, 20
1371, 125, 25, 20
1372, 118.75, 30, 20
1373, 125, 30, 15
1374, 137.5, -30, -20
1375, 137.5, -20, -20
1376, 137.5, -30, -10
1377, 137.5, -20, -10
1378, 131.25, -30, -20
1379, 137.5, -25, -20
1380, 131.25, -20, -20
1381, 131.25, -30, -10
1382, 137.5, -25, -10
1383, 131.25, -20, -10
1384, 137.5, -30, -15
1385, 137.5, -20, -15
1386, 137.5, -30, 0
1387, 137.5, -20, 0
1388, 131.25, -30, 0
1389, 137.5, -25, 0
1390, 131.25, -20, 0
1391, 137.5, -30, -5
1392, 137.5, -20, -5
1393, 137.5, -30, 10
1394, 137.5, -20, 10
1395, 131.25, -30, 10
1396, 137.5, -25, 10
1397, 131.25, -20, 10
1398, 137.5, -30, 5
1399, 137.5, -20, 5
1400, 137.5, -30, 20
1401, 137.5, -20, 20
1402, 131.25, -30, 20
1403, 137.5, -25, 20
1404, 131.25, -20, 20
1405, 137.5, -30, 15
1406, 137.5, -20, 15
1407, 137.5, -10, -20
1408, 137.5, -10, -10
1409, 137.5, -15, -20
1410, 131.25, -10, -20
1411, 137.5, -15, -10
1412, 131.25, -10, -10
1413, 137.5, -10, -15
1414, 137.5, -10, 0
1415, 137.5, -15, 0
1416, 131.25, -10, 0
1417, 137.5, -10, -5
1418, 137.5, -10, 10
1419, 137.5, -15, 10
1420, 131.25, -10, 10
1421, 137.5, -10, 5
1422, 137.5, -10, 20
1423, 137.5, -15, 20
1424, 131.25, -10, 20
1425, 137.5, -10, 15
1426, 137.5, 0, -20
1427, 137.5, 0, -10
1428, 137.5, -5, -20
1429, 131.25, 0, -20
1430, 137.5, -5, -10
1431, 131.25, 0, -10
1432, 137.5, 0, -15
1433, 137.5, 0, 0
1434, 137.5, -5, 0
1435, 131.25, 0, 0
1436, 137.5, 0, -5
1437, 137.5, 0, 10
1438, 137.5, -5, 10
1439, 131.25, 0, 10
1440, 137.5, 0, 5
1441, 137.5, 0, 20
1442, 137.5, -5, 20
1443, 131.25, 0, 20
1444, 137.5, 0, 15
1445, 137.5, 10, -20
1446, 137.5, 10, -10
1447, 137.5, 5, -20
1448, 131.25, 10, -20
1449, 137.5, 5, -10
1450, 131.25, 10, -10
1451, 137.5, 10, -15
1452, 137.5, 10, 0
1453, 137.5, 5, 0
1454, 131.25, 10, 0
1455, 137.5, 10, -5
1456, 137.5, 10, 10
1457, 137.5, 5, 10
1458, 131.25, 10, 10
1459, 137.5, 10, 5
1460, 137.5, 10, 20
1461, 137.5, 5, 20
1462, 131.25, 10, 20
1463, 137.5, 10, 15
1464, 137.5, 20, -20
1465, 137.5, 20, -10
1466, 137.5, 15, -20
1467, 131.25, 20, -20
1468, 137.5, 15, -10
1469, 131.25, 20, -10
1470, 137.5, 20, -15
1471, 137.5, 20, 0
1472, 137.5, 15, 0
1473, 131.25, 20, 0
1474, 137.5, 20, -5
1475, 137.5, 20, 10
1476, 137.5, 15, 10
1477, 131.25, 20, 10
1478, 137.5, 20, 5
1479, 137.5, 20, 20
1480, 137.5, 15, 20
1481, 131.25, 20, 20
1482, 137.5, 20, 15
1483, 137.5, 30, -20
1484, 137.5, 30, -10
1485, 137.5, 25, -20
1486, 131.25, 30, -20
1487, 137.5, 25, -10
1488, 131.25, 30, -10
1489, 137.5, 30, -15
1490, 137.5, 30, 0
1491, 137.5, 25, 0
1492, 131.25, 30, 0
1493, 137.5, 30, -5
1494, 137.5, 30, 10
1495, 137.5, 25, 10
1496, 131.25, 30, 10
1497, 137.5, 30, 5
1498, 137.5, 30, 20
1499, 137.5, 25, 20
1500, 131.25, 30, 20
1501, 137.5, 30, 15
1502, 150, -30, -20
1503, 150, -20, -20
1504, 150, -30, -10
1505, 150, -20, -10
1506, 143.75, -30, -20
1507, 150, -25, -20
1508, 143.75, -20, -20
1509, 143.75, -30, -10
1510, 150, -25, -10
1511, 143.75, -20, -10
1512, 150, -30, -15
1513, 150, -20, -15
1514, 150, -30, 0
1515, 150, -20, 0
1516, 143.75, -30, 0
1517, 150, -25, 0
1518, 143.75, -20, 0
1519, 150, -30, -5
1520, 150, -20, -5
1521, 150, -30, 10
1522, 150, -20, 10
1523, 143.75, -30, 10
1524, 150, -25, 10
1525, 143.75, -20, 10
1526, 150, -30, 5
1527, 150, -20, 5
1528, 150, -30, 20
1529, 150, -20, 20
1530, 143.75, -30, 20
1531, 150, -25, 20
1532, 143.75, -20, 20
1533, 150, -30, 15
1534, 150, -20, 15
1535, 150, -10, -20
1536, 150, -10, -10
1537, 150, -15, -20
1538, 143.75, -10, -20
1539, 150, -15, -10
1540, 143.75, -10, -10
1541, 150, -10, -15
1542, 150, -10, 0
1543, 150, -15, 0
1544, 143.75, -10, 0
1545, 150, -10, -5
1546, 150, -10, 10
1547, 150, -15, 10
1548, 143.75, -10, 10
1549, 150, -10, 5
1550, 150, -10, 20
1551, 150, -15, 20
1552, 143.75, -10, 20
1553, 150, -10, 15
1554, 150, 0, -20
1555, 150, 0, -10
1556, 150, -5, -20
1557, 143.75, 0, -20
1558, 150, -5, -10
1559, 143.75, 0, -10
1560, 150, 0, -15
1561, 150, 0, 0
1562, 150, -5, 0
1563, 143.75, 0, 0
1564, 150, 0, -5
1565, 150, 0, 10
1566, 150, -5, 10
1567, 143.75, 0, 10
1568, 150, 0, 5
1569, 150, 0, 20
1570, 150, -5, 20
1571, 143.75, 0, 20
1572, 150, 0, 15
1573, 150, 10, -20
1574, 150, 10, -10
1575, 150, 5, -20
1576, 143.75, 10, -20
1577, 150, 5, -10
1578, 143.75, 10, -10
1579, 150, 10, -15
1580, 150, 10, 0
1581, 150, 5, 0
1582, 143.75, 10, 0
1583, 150, 10, -5
1584, 150, 10, 10
1585, 150, 5, 10
1586, 143.75, 10, 10
1587, 150, 10, 5
1588, 150, 10, 20
1589, 150, 5, 20
1590, 143.75, 10, 20
1591, 150, 10, 15
1592, 150, 20, -20
1593, 150, 20, -10
1594, 150, 15, -20
1595, 143.75, 20, -20
1596, 150, 15, -10
1597, 143.75, 20, -10
1598, 150, 20, -15
1599, 150, 20, 0
1600, 150, 15, 0
1601, 143.75, 20, 0
1602, 150, 20, -5
1603, 150, 20, 10
1604, 150, 15, 10
1605, 143.75, 20, 10
1606, 150, 20, 5
1607, 150, 20, 20
1608, 150, 15, 20
1609, 143.75, 20, 20
1610, 150, 20, 15
1611, 150, 30, -20
1612, 150, 30, -10
1613, 150, 25, -20
1614, 143.75, 30, -20
1615, 150, 25, -10
1616, 143.75, 30, -10
1617, 150, 30, -15
1618, 150, 30, 0
1619, 150, 25, 0
1620, 143.75, 30, 0
1621, 150, 30, -5
1622, 150, 30, 10
1623, 150, 25, 10
1624, 143.75, 30, 10
1625, 150, 30, 5
1626, 150, 30, 20
1627, 150, 25, 20
1628, 143.75, 30, 20
1629, 150, 30, 15
1630, 162.5, -30, -20
1631, 162.5, -20, -20
1632, 162.5, -30, -10
1633, 162.5, -20, -10
1634, 156.25, -30, -20
1635, 162.5, -25, -20
1636, 156.25, -20, -20
1637, 156.25, -30, -10
1638, 162.5, -25, -10
1639, 156.25, -20, -10
1640, 162.5, -30, -15
1641, 162.5, -20, -15
1642, 162.5, -30, 0
1643, 162.5, -20, 0
1644, 156.25, -30, 0
1645, 162.5, -25, 0
1646, 156.25, -20, 0
1647, 162.5, -30, -5
1648, 162.5, -20, -5
1649, 162.5, -30, 10
1650, 162.5, -20, 10
1651, 156.25, -30, 10
1652, 162.5, -25, 10
1653, 156.25, -20, 10
1654, 162.5, -30, 5
1655, 162.5, -20, 5
1656, 162.5, -30, 20
1657, 162.5, -20, 20
1658, 156.25, -30, 20
1659, 162.5, -25, 20
1660, 156.25, -20, 20
1661, 162.5, -30, 15
1662, 162.5, -20, 15
1663, 162.5, -10, -20
1664, 162.5, -10, -10
1665, 162.5, -15, -20
1666, 156.25, -10, -20
1667, 162.5, -15, -10
1668, 156.25, -10, -10
1669, 162.5, -10, -15
1670, 162.5, -10, 0
1671, 162.5, -15, 0
1672, 156.25, -10, 0
1673, 162.5, -10, -5
1674, 162.5, -10, 10
1675, 162.5, -15, 10
1676, 156.25, -10, 10
1677, 162.5, -10, 5
1678, 162.5, -10, 20
1679, 162.5, -15, 20
1680, 156.25, -10, 20
1681, 162.5, -10, 15
1682, 162.5, 0, -20
1683, 162.5, 0, -10
1684, 162.5, -5, -20
1685, 156.25, 0, -20
1686, 162.5, -5, -10
1687, 156.25, 0, -10
1688, 162.5, 0, -15
1689, 162.5, 0, 0
1690, 162.5, -5, 0
1691, 156.25, 0, 0
1692, 162.5, 0, -5
1693, 162.5, 0, 10
1694, 162.5, -5, 10
1695, 156.25, 0, 10
1696, 162.5, 0, 5
1697, 162.5, 0, 20
1698, 162.5, -5, 20
1699, 156.25, 0, 20
1700, 162.5, 0, 15
1701, 162.5, 10, -20
1702, 162.5, 10, -10
1703, 162.5, 5, -20
1704, 156.25, 10, -20
1705, 162.5, 5, -10
1706, 156.25, 10, -10
1707, 162.5, 10, -15
1708, 162.5, 10, 0
1709, 162.5, 5, 0
1710, 156.25, 10, 0
1711, 162.5, 10, -5
1712, 162.5, 10, 10
1713, 162.5, 5, 10
1714, 156.25, 10, 10
1715, 162.5, 10, 5
1716, 162.5, 10, 20
1717, 162.5, 5, 20
1718, 156.25, 10, 20
1719, 162.5, 10, 15
1720, 162.5, 20, -20
1721, 162.5, 20, -10
1722, 162.5, 15, -20
1723, 156.25, 20, -20
1724, 162.5, 15, -10
1725, 156.25, 20, -10
1726, 162.5, 20, -15
1727, 162.5, 20, 0
1728, 162.5, 15, 0
1729, 156.25, 20, 0
1730, 162.5, 20, -5
1731, 162.5, 20, 10
1732, 162.5, 15, 10
1733, 156.25, 20, 10
1734, 162.5, 20, 5
1735, 162.5, 20, 20
1736, 162.5, 15, 20
1737, 156.25, 20, 20
1738, 162.5, 20, 15
1739, 162.5, 30, -20
1740, 162.5, 30, -10
1741, 162.5, 25, -20
1742, 156.25, 30, -20
1743, 162.5, 25, -10
1744, 156.25, 30, -10
1745, 162.5, 30, -15
1746, 162.5, 30, 0
1747, 162.5, 25, 0
1748, 156.25, 30, 0
1749, 162.5, 30, -5
1750, 162.5, 30, 10
1751, 162.5, 25, 10
1752, 156.25, 30, 10
1753, 162.5, 30, 5
1754, 162.5, 30, 20
1755, 162.5, 25, 20
1756, 156.25, 30, 20
1757, 162.5, 30, 15
1758, 175, -30, -20
1759, 175, -20, -20
1760, 175, -30, -10
1761, 175, -20, -10
1762, 168.75, -30, -20
1763, 175, -25, -20
1764, 168.75, -20, -20
1765, 168.75, -30, -10
1766, 175, -25, -10
1767, 168.75, -20, -10
1768, 175, -30, -15
1769, 175, -20, -15
1770, 175, -30, 0
1771, 175, -20, 0
1772, 168.75, -30, 0
1773, 175, -25, 0
1774, 168.75, -20, 0
1775, 175, -30, -5
1776, 175, -20, -5
1777, 175, -30, 10
1778, 175, -20, 10
1779, 168.75, -30, 10
1780, 175, -25, 10
1781, 168.75, -20, 10
1782, 175, -30, 5
1783, 175, -20, 5
1784, 175, -30, 20
1785, 175, -20, 20
1786, 168.75, -30, 20
1787, 175, -25, 20
1788, 168.75, -20, 20
1789, 175, -30, 15
1790, 175, -20, 15
1791, 175, -10, -20
1792, 175, -10, -10
1793, 175, -15, -20
1794, 168.75, -10, -20
1795, 175, -15, -10
1796, 168.75, -10, -10
1797, 175, -10, -15
1798, 175, -10, 0
1799, 175, -15, 0
1800, 168.75, -10, 0
1801, 175, -10, -5
1802, 175, -10, 10
1803, 175, -15, 10
1804, 168.75, -10, 10
1805, 175, -10, 5
1806, 175, -10, 20
1807, 175, -15, 20
1808, 168.75, -10, 20
1809, 175, -10, 15
1810, 175, 0, -20
1811, 175, 0, -10
1812, 175, -5, -20
1813, 168.75, 0, -20
1814, 175, -5, -10
1815, 168.75, 0, -10
1816, 175, 0, -15
1817, 175, 0, 0
1818, 175, -5, 0
1819, 168.75, 0, 0
1820, 175, 0, -5
1821, 175, 0, 10
1822, 175, -5, 10
1823, 168.75, 0, 10
1824, 175, 0, 5
1825, 175, 0, 20
1826, 175, -5, 20
1827, 168.75, 0, 20
1828, 175, 0, 15
1829, 175, 10, -20
1830, 175, 10, -10
1831, 175, 5, -20
1832, 168.75, 10, -20
1833, 175, 5, -10
1834, 168.75, 10, -10
1835, 175, 10, -15
1836, 175, 10, 0
1837, 175, 5, 0
1838, 168.75, 10, 0
1839, 175, 10, -5
1840, 175, 10, 10
1841, 175, 5, 10
1842, 168.75, 10, 10
1843, 175, 10, 5
1844, 175, 10, 20
1845, 175, 5, 20
1846, 168.75, 10, 20
1847, 175, 10, 15
1848, 175, 20, -20
1849, 175, 20, -10
1850, 175, 15, -20
1851, 168.75, 20, -20
1852, 175, 15, -10
1853, 168.75, 20, -10
1854, 175, 20, -15
1855, 175, 20, 0
1856, 175, 15, 0
1857, 168.75, 20, 0
1858, 175, 20, -5
1859, 175, 20, 10
1860, 175, 15, 10
1861, 168.75, 20, 10
1862, 175, 20, 5
1863, 175, 20, 20
1864, 175, 15, 20
1865, 168.75, 20, 20
1866, 175, 20, 15
1867, 175, 30, -20
1868, 175, 30, -10
1869, 175, 25, -20
1870, 168.75, 30, -20
1871, 175, 25, -10
1872, 168.75, 30, -10
1873, 175, 30, -15
1874, 175, 30, 0
1875, 175, 25, 0
1876, 168.75, 30, 0
1877, 175, 30, -5
1878, 175, 30, 10
1879, 175, 25, 10
1880, 168.75, 30, 10
1881, 175, 30, 5
1882, 175, 30, 20
1883, 175, 25, 20
1884, 168.75, 30, 20
1885, 175, 30, 15
1886, 187.5, -30, -20
1887, 187.5, -20, -20
1888, 187.5, -30, -10
1889, 187.5, -20, -10
1890, 181.25, -30, -20
1891, 187.5, -25, -20
1892, 181.25, -20, -20
1893, 181.25, -30, -10
1894, 187.5, -25, -10
1895, 181.25, -20, -10
1896, 187.5, -30, -15
1897, 187.5, -20, -15
1898, 187.5, -30, 0
1899, 187.5, -20, 0
1900, 181.25, -30, 0
1901, 187.5, -25, 0
1902, 181.25, -20, 0
1903, 187.5, -30, -5
1904, 187.5, -20, -5
1905, 187.5, -30, 10
1906, 187.5, -20, 10
1907, 181.25, -30, 10
1908, 187.5, -25, 10
1909, 181.25, -20, 10
1910, 187.5, -30, 5
1911, 187.5, -20, 5
1912, 187.5, -30, 20
1913, 187.5, -20, 20
1914, 181.25, -30, 20
1915, 187.5, -25, 20
1916, 181.25, -20, 20
1917, 187.5, -30, 15
1918, 187.5, -20, 15
1919, 187.5, -10, -20
1920, 187.5, -10, -10
1921, 187.5, -15, -20
1922, 181.25, -10, -20
1923, 187.5, -15, -10
1924, 181.25, -10, -10
1925, 187.5, -10, -15
1926, 187.5, -10, 0
1927, 187.5, -15, 0
1928, 181.25, -10, 0
1929, 187.5, -10, -5
1930, 187.5, -10, 10
1931, 187.5, -15, 10
1932, 181.25, -10, 10
1933, 187.5, -10, 5
1934, 187.5, -10, 20
1935, 187.5, -15, 20
1936, 181.25, -10, 20
1937, 187.5, -10, 15
1938, 187.5, 0, -20
1939, 187.5, 0, -10
1940, 187.5, -5, -20
1941, 181.25, 0, -20
1942, 187.5, -5, -10
1943, 181.25, 0, -10
1944, 187.5, 0, -15
1945, 187.5, 0, 0
1946, 187.5, -5, 0
1947, 181.25, 0, 0
1948, 187.5, 0, -5
1949, 187.5, 0, 10
1950, 187.5, -5, 10
1951, 181.25, 0, 10
1952, 187.5, 0, 5
1953, 187.5, 0, 20
1954, 187.5, -5, 20
1955, 181.25, 0, 20
1956, 187.5, 0, 15
1957, 187.5, 10, -20
1958, 187.5, 10, -10
1959, 187.5, 5, -20
1960, 181.25, 10, -20
1961, 187.5, 5, -10
1962, 181.25, 10, -10
1963, 187.5, 10, -15
1964, 187.5, 10, 0
1965, 187.5, 5, 0
1966, 181.25, 10, 0
1967, 187.5, 10, -5
1968, 187.5, 10, 10
1969, 187.5, 5, 10
1970, 181.25, 10, 10
1971, 187.5, 10, 5
1972, 187.5, 10, 20
1973, 187.5, 5, 20
1974, 181.25, 10, 20
1975, 187.5, 10, 15
1976, 187.5, 20, -20
1977, 187.5, 20, -10
1978, 187.5, 15, -20
1979, 181.25, 20, -20
1980, 187.5, 15, -10
1981, 181.25, 20, -10
1982, 187.5, 20, -15
1983, 187.5, 20, 0
1984, 187.5, 15, 0
1985, 181.25, 20, 0
1986, 187.5, 20, -5
1987, 187.5, 20, 10
1988, 187.5, 15, 10
1989, 181.25, 20, 10
1990, 187.5, 20, 5
1991, 187.5, 20, 20
1992, 187.5, 15, 20
1993, 181.25, 20, 20
1994, 187.5, 20, 15
1995, 187.5, 30, -20
1996, 187.5, 30, -10
1997, 187.5, 25, -20
1998, 181.25, 30, -20
1999, 187.5, 25, -10
2000, 181.25, 30, -10
2001, 187.5, 30, -15
2002, 187.5, 30, 0
2003, 187.5, 25, 0
2004, 181.25, 30, 0
2005, 187.5, 30, -5
2006, 187.5, 30, 10
2007, 187.5, 25, 10
2008, 181.25, 30, 10
2009, 187.5, 30, 5
2010, 187.5, 30, 20
2011, 187.5, 25, 20
2012, 181.25, 30, 20
2013, 187.5, 30, 15
2014, 200, -30, -20
2015, 200, -20, -20
2016, 200, -30, -10
2017, 200, -20, -10
2018, 193.75, -30, -20
2019, 200, -25, -20
2020, 193.75, -20, -20
2021, 193.75, -30, -10
2022, 200, -25, -10
2023, 193.75, -20, -10
2024, 200, -30, -15
2025, 200, -20, -15
2026, 200, -30, 0
2027, 200, -20, 0
2028, 193.75, -30, 0
2029, 200, -25, 0
2030, 193.75, -20, 0
2031, 200, -30, -5
2032, 200, -20, -5
2033, 200, -30, 10
2034, 200, -20, 10
2035, 193.75, -30, 10
2036, 200, -25, 10
2037, 193.75, -20, 10
2038, 200, -30, 5
2039, 200, -20, 5
2040, 200, -30, 20
2041, 200, -20, 20
2042, 193.75, -30, 20
2043, 200, -25, 20
2044, 193.75, -20, 20
2045, 200, -30, 15
2046, 200, -20, 15
2047, 200, -10, -20
2048, 200, -10, -10
2049, 200, -15, -20
2050, 193.75, -10, -20
2051, 200, -15, -10
2052, 193.75, -10, -10
2053, 200, -10, -15
2054, 200, -10, 0
2055, 200, -15, 0
2056, 193.75, -10, 0
2057, 200, -10, -5
2058, 200, -10, 10
2059, 200, -15, 10
2060, 193.75, -10, 10
2061, 200, -10, 5
2062, 200, -10, 20
2063, 200, -15, 20
2064, 193.75, -10, 20
2065, 200, -10, 15
2066, 200, 0, -20
2067, 200, 0, -10
2068, 200, -5, -20
2069, 193.75, 0, -20
2070, 200, -5, -10
2071, 193.75, 0, -10
2072, 200, 0, -15
2073, 200, 0, 0
2074, 200, -5, 0
2075, 193.75, 0, 0
2076, 200, 0, -5
2077, 200, 0, 10
2078, 200, -5, 10
2079, 193.75, 0, 10
2080, 200, 0, 5
2081, 200, 0, 20
2082, 200, -5, 20
2083, 193.75, 0, 20
2084, 200, 0, 15
2085, 200, 10, -20
2086, 200, 10, -10
2087, 200, 5, -20
2088, 193.75, 10, -20
2089, 200, 5, -10
2090, 193.75, 10, -10
2091, 200, 10, -15
2092, 200, 10, 0
2093, 200, 5, 0
2094, 193.75, 10, 0
2095, 200, 10, -5
2096, 200, 10, 10
2097, 200, 5, 10
2098, 193.75, 10, 10
2099, 200, 10, 5
2100, 200, 10, 20
2101, 200, 5, 20
2102, 193.75, 10, 20
2103, 200, 10, 15
2104, 200, 20, -20
2105, 200, 20, -10
2106, 200, 15, -20
2107, 193.75, 20, -20
2108, 200, 15, -10
2109, 193.75, 20, -10
2110, 200, 20, -15
2111, 200, 20, 0
2112, 200, 15, 0
2113, 193.75, 20, 0
2114, 200, 20, -5
2115, 200, 20, 10
2116, 200, 15, 10
2117, 193.75, 20, 10
2118, 200, 20, 5
2119, 200, 20, 20
2120, 200, 15, 20
2121, 193.75, 20, 20
2122, 200, 20, 15
2123, 200, 30, -20
2124, 200, 30, -10
2125, 200, 25, -20
2126, 193.75, 30, -20
2127, 200, 25, -10
2128, 193.75, 30, -10
2129, 200, 30, -15
2130, 200, 30, 0
2131, 200, 25, 0
2132, 193.75, 30, 0
2133, 200, 30, -5
2134, 200, 30, 10
2135, 200, 25, 10
2136, 193.75, 30, 10
2137, 200, 30, 5
2138, 200, 30, 20
2139, 200, 25, 20
2140, 193.75, 30, 20
2141, 200, 30, 15
2142, 212.5, -30, -20
2143, 212.5, -20, -20
2144, 212.5, -30, -10
2145, 212.5, -20, -10
2146, 206.25, -30, -20
2147, 212.5, -25, -20
2148, 206.25, -20, -20
2149, 206.25, -30, -10
2150, 212.5, -25, -10
2151, 206.25, -20, -10
2152, 212.5, -30, -15
2153, 212.5, -20, -15
2154, 212.5, -30, 0
2155, 212.5, -20, 0
2156, 206.25, -30, 0
2157, 212.5, -25, 0
2158, 206.25, -20, 0
2159, 212.5, -30, -5
2160, 212.5, -20, -5
2161, 212.5, -30, 10
2162, 212.5, -20, 10
2163, 206.25, -30, 10
2164, 212.5, -25, 10
2165, 206.25, -20, 10
2166, 212.5, -30, 5
2167, 212.5, -20, 5
2168, 212.5, -30, 20
2169, 212.5, -20, 20
2170, 206.25, -30, 20
2171, 212.5, -25, 20
2172, 206.25, -20, 20
2173, 212.5, -30, 15
2174, 212.5, -20, 15
2175, 212.5, -10, -20
2176, 212.5, -10, -10
2177, 212.5, -15, -20
2178, 206.25, -10, -20
2179, 212.5, -15, -10
2180, 206.25, -10, -10
2181, 212.5, -10, -15
2182, 212.5, -10, 0
2183, 212.5, -15, 0
2184, 206.25, -10, 0
2185, 212.5, -10, -5
2186, 212.5, -10, 10
2187, 212.5, -15, 10
2188, 206.25, -10, 10
2189, 212.5, -10, 5
2190, 212.5, -10, 20
2191, 212.5, -15, 20
2192, 206.25, -10, 20
2193, 212.5, -10, 15
2194, 212.5, 0, -20
2195, 212.5, 0, -10
2196, 212.5, -5, -20
2197, 206.25, 0, -20
2198, 212.5, -5, -10
2199, 206.25, 0, -10
2200, 212.5, 0, -15
2201, 212.5, 0, 0
2202, 212.5, -5, 0
2203, 206.25, 0, 0
2204, 212.5, 0, -5
2205, 212.5, 0, 10
2206, 212.5, -5, 10
2207, 206.25, 0, 10
2208, 212.5, 0, 5
2209, 212.5, 0, 20
2210, 212.5, -5, 20
2211, 206.25, 0, 20
2212, 212.5, 0, 15
2213, 212.5, 10, -20
2214, 212.5, 10, -10
2215, 212.5, 5, -20
2216, 206.25, 10, -20
2217, 212.5, 5, -10
2218, 206.25, 10, -10
2219, 212.5, 10, -15
2220, 212.5, 10, 0
2221, 212.5, 5, 0
2222, 206.25, 10, 0
2223, 212.5, 10, -5
2224, 212.5, 10, 10
2225, 212.5, 5, 10
2226, 206.25, 10, 10
2227, 212.5, 10, 5
2228, 212.5, 10, 20
2229, 212.5, 5, 20
2230, 206.25, 10, 20
2231, 212.5, 10, 15
2232, 212.5, 20, -20
2233, 212.5, 20, -10
2234, 212.5, 15, -20
2235, 206.25, 20, -20
2236, 212.5, 15, -10
2237, 206.25, 20, -10
2238, 212.5, 20, -15
2239, 212.5, 20, 0
2240, 212.5, 15, 0
2241, 206.25, 20, 0
2242, 212.5, 20, -5
2243, 212.5, 20, 10
2244, 212.5, 15, 10
2245, 206.25, 20, 10
2246, 212.5, 20, 5
2247, 212.5, 20, 20
2248, 212.5, 15, 20
2249, 206.25, 20, 20
2250, 212.5, 20, 15
2251, 212.5, 30, -20
2252, 212.5, 30, -10
2253, 212.5, 25, -20
2254, 206.25, 30, -20
2255, 212.5, 25, -10
2256, 206.25, 30, -10
2257, 212.5, 30, -15
2258, 212.5, 30, 0
2259, 212.5, 25, 0
2260, 206.25, 30, 0
2261, 212.5, 30, -5
2262, 212.5, 30, 10
2263, 212.5, 25, 10
2264, 206.25, 30, 10
2265, 212.5, 30, 5
2266, 212.5, 30, 20
2267, 212.5, 25, 20
2268, 206.25, 30, 20
2269, 212.5, 30, 15
2270, 225, -30, -20
2271, 225, -20, -20
2272, 225, -30, -10
2273, 225, -20, -10
2274, 218.75, -30, -20
2275, 225, -25, -20
2276, 218.75, -20, -20
2277, 218.75, -30, -10
2278, 225, -25, -10
2279, 218.75, -20, -10
2280, 225, -30, -15
2281, 225, -20, -15
2282, 225, -30, 0
2283, 225, -20, 0
2284, 218.75, -30, 0
2285, 225, -25, 0
2286, 218.75, -20, 0
2287, 225, -30, -5
2288, 225, -20, -5
2289, 225, -30, 10
2290, 225, -20, 10
2291, 218.75, -30, 10
2292, 225, -25, 10
2293, 218.75, -20, 10
2294, 225, -30, 5
2295, 225, -20, 5
2296, 225, -30, 20
2297, 225, -20, 20
2298, 218.75, -30, 20
2299, 225, -25, 20
2300, 218.75, -20, 20
2301, 225, -30, 15
2302, 225, -20, 15
2303, 225, -10, -20
2304, 225, -10, -10
2305, 225, -15, -20
2306, 218.75, -10, -20
2307, 225, -15, -10
2308, 218.75, -10, -10
2309, 225, -10, -15
2310, 225, -10, 0
2311, 225, -15, 0
2312, 218.75, -10, 0
2313, 225, -10, -5
2314, 225, -10, 10
2315, 225, -15, 10
2316, 218.75, -10, 10
2317, 225, -10, 5
2318, 225, -10, 20
2319, 225, -15, 20
2320, 218.75, -10, 20
2321, 225, -10, 15
2322, 225, 0, -20
2323, 225, 0, -10
2324, 225, -5, -20
2325, 218.75, 0, -20
2326, 225, -5, -10
2327, 218.75, 0, -10
2328, 225, 0, -15
2329, 225, 0, 0
2330, 225, -5, 0
2331, 218.75, 0, 0
2332, 225, 0, -5
2333, 225, 0, 10
2334, 225, -5, 10
2335, 218.75, 0, 10
2336, 225, 0, 5
2337, 225, 0, 20
2338, 225, -5, 20
2339, 218.75, 0, 20
2340, 225, 0, 15
2341, 225, 10, -20
2342, 225, 10, -10
2343, 225, 5, -20
2344, 218.75, 10, -20
2345, 225, 5, -10
2346, 218.75, 10, -10
2347, 225, 10, -15
2348, 225, 10, 0
2349, 225, 5, 0
2350, 218.75, 10, 0
2351, 225, 10, -5
2352, 225, 10, 10
2353, 225, 5, 10
2354, 218.75, 10, 10
2355, 225, 10, 5
2356, 225, 10, 20
2357, 225, 5, 20
2358, 218.75, 10, 20
2359, 225, 10, 15
2360, 225, 20, -20
2361, 225, 20, -10
2362, 225, 15, -20
2363, 218.75, 20, -20
2364, 225, 15, -10
2365, 218.75, 20, -10
2366, 225, 20, -15
2367, 225, 20, 0
2368, 225, 15, 0
2369, 218.75, 20, 0
2370, 225, 20, -5
2371, 225, 20, 10
2372, 225, 15, 10
2373, 218.75, 20, 10
2374, 225, 20, 5
2375, 225, 20, 20
2376, 225, 15, 20
2377, 218.75, 20, 20
2378, 225, 20, 15
2379, 225, 30, -20
2380, 225, 30, -10
2381, 225, 25, -20
2382, 218.75, 30, -20
2383, 225, 25, -10
2384, 218.75, 30, -10
2385, 225, 30, -15
2386, 225, 30, 0
2387, 225, 25, 0
2388, 218.75, 30, 0
2389, 225, 30, -5
2390, 225, 30, 10
2391, 225, 25, 10
2392, 218.75, 30, 10
2393, 225, 30, 5
2394, 225, 30, 20
2395, 225, 25, 20
2396, 218.75, 30, 20
2397, 225, 30, 15
2398, 237.5, -30, -20
2399, 237.5, -20, -20
2400, 237.5, -30, -10
2401, 237.5, -20, -10
2402, 231.25, -30, -20
2403, 237.5, -25, -20
2404, 231.25, -20, -20
2405, 231.25, -30, -10
2406, 237.5, -25, -10
2407, 231.25, -20, -10
2408, 237.5, -30, -15
2409, 237.5, -20, -15
2410, 237.5, -30, 0
2411, 237.5, -20, 0
2412, 231.25, -30, 0
2413, 237.5, -25, 0
2414, 231.25, -20, 0
2415, 237.5, -30, -5
2416, 237.5, -20, -5
2417, 237.5, -30, 10
2418, 237.5, -20, 10
2419, 231.25, -30, 10
2420, 237.5, -25, 10
2421, 231.25, -20, 10
2422, 237.5, -30, 5
2423, 237.5, -20, 5
2424, 237.5, -30, 20
2425, 237.5, -20, 20
2426, 231.25, -30, 20
2427, 237.5, -25, 20
2428, 231.25, -20, 20
2429, 237.5, -30, 15
2430, 237.5, -20, 15
2431, 237.5, -10, -20
2432, 237.5, -10, -10
2433, 237.5, -15, -20
2434, 231.25, -10, -20
2435, 237.5, -15, -10
2436, 231.25, -10, -10
2437, 237.5, -10, -15
2438, 237.5, -10, 0
2439, 237.5, -15, 0
2440, 231.25, -10, 0
2441, 237.5, -10, -5
2442, 237.5, -10, 10
2443, 237.5, -15, 10
2444, 231.25, -10, 10
2445, 237.5, -10, 5
2446, 237.5, -10, 20
2447, 237.5, -15, 20
2448, 231.25, -10, 20
2449, 237.5, -10, 15
2450, 237.5, 0, -20
2451, 237.5, 0, -10
2452, 237.5, -5, -20
2453, 231.25, 0, -20
2454, 237.5, -5, -10
2455, 231.25, 0, -10
2456, 237.5, 0, -15
2457, 237.5, 0, 0
2458, 237.5, -5, 0
2459, 231.25, 0, 0
2460, 237.5, 0, -5
2461, 237.5, 0, 10
2462, 237.5, -5, 10
2463, 231.25, 0, 10
2464, 237.5, 0, 5
2465, 237.5, 0, 20
2466, 237.5, -5, 20
2467, 231.25, 0, 20
2468, 237.5, 0, 15
2469, 237.5, 10, -20
2470, 237.5, 10, -10
2471, 237.5, 5, -20
2472, 231.25, 10, -20
2473, 237.5, 5, -10
2474, 231.25, 10, -10
2475, 237.5, 10, -15
2476, 237.5, 10, 0
2477, 237.5, 5, 0
2478, 231.25, 10, 0
2479, 237.5, 10, -5
2480, 237.5, 10, 10
2481, 237.5, 5, 10
2482, 231.25, 10, 10
2483, 237.5, 10, 5
2484, 237.5, 10, 20
2485, 237.5, 5, 20
2486, 231.25, 10, 20
2487, 237.5, 10, 15
2488, 237.5, 20, -20
2489, 237.5, 20, -10
2490, 237.5, 15, -20
2491, 231.25, 20, -20
2492, 237.5, 15, -10
2493, 231.25, 20, -10
2494, 237.5, 20, -15
2495, 237.5, 20, 0
2496, 237.5, 15, 0
2497, 231.25, 20, 0
2498, 237.5, 20, -5
2499, 237.5, 20, 10
2500, 237.5, 15, 10
2501, 231.25, 20, 10
2502, 237.5, 20, 5
2503, 237.5, 20, 20
2504, 237.5, 15, 20
2505, 231.25, 20, 20
2506, 237.5, 20, 15
2507, 237.5, 30, -20
2508, 237.5, 30, -10
2509, 237.5, 25, -20
2510, 231.25, 30, -20
2511, 237.5, 25, -10
2512, 231.25, 30, -10
2513, 237.5, 30, -15
2514, 237.5, 30, 0
2515, 237.5, 25, 0
2516, 231.25, 30, 0
2517, 237.5, 30, -5
2518, 237.5, 30, 10
2519, 237.5, 25, 10
2520, 231.25, 30, 10
2521, 237.5, 30, 5
2522, 237.5, 30, 20
2523, 237.5, 25, 20
2524, 231.25, 30, 20
2525, 237.5, 30, 15
2526, 250, -30, -20
2527, 250, -20, -20
2528, 250, -30, -10
2529, 250, -20, -10
2530, 243.75, -30, -20
2531, 250, -25, -20
2532, 243.75, -20, -20
2533, 243.75, -30, -10
2534, 250, -25, -10
2535, 243.75, -20, -10
2536, 250, -30, -15
2537, 250, -20, -15
2538, 250, -30, 0
2539, 250, -20, 0
2540, 243.75, -30, 0
2541, 250, -25, 0
2542, 243.75, -20, 0
2543, 250, -30, -5
2544, 250, -20, -5
2545, 250, -30, 10
2546, 250, -20, 10
2547, 243.75, -30, 10
2548, 250, -25, 10
2549, 243.75, -20, 10
2550, 250, -30, 5
2551, 250, -20, 5
2552, 250, -30, 20
2553, 250, -20, 20
2554, 243.75, -30, 20
2555, 250, -25, 20
2556, 243.75, -20, 20
2557, 250, -30, 15
2558, 250, -20, 15
2559, 250, -10, -20
2560, 250, -10, -10
2561, 250, -15, -20
2562, 243.75, -10, -20
2563, 250, -15, -10
2564, 243.75, -10, -10
2565, 250, -10, -15
2566, 250, -10, 0
2567, 250, -15, 0
2568, 243.75, -10, 0
2569, 250, -10, -5
2570, 250, -10, 10
2571, 250, -15, 10
2572, 243.75, -10, 10
2573, 250, -10, 5
2574, 250, -10, 20
2575, 250, -15, 20
2576, 243.75, -10, 20
2577, 250, -10, 15
2578, 250, 0, -20
2579, 250, 0, -10
2580, 250, -5, -20
2581, 243.75, 0, -20
2582, 250, -5, -10
2583, 243.75, 0, -10
2584, 250, 0, -15
2585, 250, 0, 0
2586, 250, -5, 0
2587, 243.75, 0, 0
2588, 250, 0, -5
2589, 250, 0, 10
2590, 250, -5, 10
2591, 243.75, 0, 10
2592, 250, 0, 5
2593, 250, 0, 20
2594, 250, -5, 20
2595, 243.75, 0, 20
2596, 250, 0, 15
2597, 250, 10, -20
2598, 250, 10, -10
2599, 250, 5, -20
2600, 243.75, 10, -20
2601, 250, 5, -10
2602, 243.75, 10, -10
2603, 250, 10, -15
2604, 250, 10, 0
2605, 250, 5, 0
2606, 243.75, 10, 0
2607, 250, 10, -5
2608, 250, 10, 10
2609, 250, 5, 10
2610, 243.75, 10, 10
2611, 250, 10, 5
2612, 250, 10, 20
2613, 250, 5, 20
2614, 243.75, 10, 20
2615, 250, 10, 15
2616, 250, 20, -20
2617, 250, 20, -10
2618, 250, 15, -20
2619, 243.75, 20, -20
2620, 250, 15, -10
2621, 243.75, 20, -10
2622, 250, 20, -15
2623, 250, 20, 0
2624, 250, 15, 0
2625, 243.75, 20, 0
2626, 250, 20, -5
2627, 250, 20, 10
2628, 250, 15, 10
2629, 243.75, 20, 10
2630, 250, 20, 5
2631, 250, 20, 20
2632, 250, 15, 20
2633, 243.75, 20, 20
2634, 250, 20, 15
2635, 250, 30, -20
2636, 250, 30, -10
2637, 250, 25, -20
2638, 243.75, 30, -20
2639, 250, 25, -10
2640, 243.75, 30, -10
2641, 250, 30, -15
2642, 250, 30, 0
2643, 250, 25, 0
2644, 243.75, 30, 0
2645, 250, 30, -5
2646, 250, 30, 10
2647, 250, 25, 10
2648, 243.75, 30, 10
2649, 250, 30, 5
2650, 250, 30, 20
2651, 250, 25, 20
2652, 243.75, 30, 20
2653, 250, 30, 15
2654, 262.5, -30, -20
2655, 262.5, -20, -20
2656, 262.5, -30, -10
2657, 262.5, -20, -10
2658, 256.25, -30, -20
2659, 262.5, -25, -20
2660, 256.25, -20, -20
2661, 256.25, -30, -10
2662, 262.5, -25, -10
2663, 256.25, -20, -10
2664, 262.5, -30, -15
2665, 262.5, -20, -15
2666, 262.5, -30, 0
2667, 262.5, -20, 0
2668, 256.25, -30, 0
2669, 262.5, -25, 0
2670, 256.25, -20, 0
2671, 262.5, -30, -5
2672, 262.5, -20, -5
2673, 262.5, -30, 10
2674, 262.5, -20, 10
2675, 256.25, -30, 10
2676, 262.5, -25, 10
2677, 256.25, -20, 10
2678, 262.5, -30, 5
2679, 262.5, -20, 5
2680, 262.5, -30, 20
2681, 262.5, -20, 20
2682, 256.25, -30, 20
2683, 262.5, -25, 20
2684, 256.25, -20, 20
2685, 262.5, -30, 15
2686, 262.5, -20, 15
2687, 262.5, -10, -20
2688, 262.5, -10, -10
2689, 262.5, -15, -20
2690, 256.25, -10, -20
2691, 262.5, -15, -10
2692, 256.25, -10, -10
2693, 262.5, -10, -15
2694, 262.5, -10, 0
2695, 262.5, -15, 0
2696, 256.25, -10, 0
2697, 262.5, -10, -5
2698, 262.5, -10, 10
2699, 262.5, -15, 10
2700, 256.25, -10, 10
2701, 262.5, -10, 5
2702, 262.5, -10, 20
2703, 262.5, -15, 20
2704, 256.25, -10, 20
2705, 262.5, -10, 15
2706, 262.5, 0, -20
2707, 262.5, 0, -10
2708, 262.5, -5, -20
2709, 256.25, 0, -20
2710, 262.5, -5, -10
2711, 256.25, 0, -10
2712, 262.5, 0, -15
2713, 262.5, 0, 0
2714, 262.5, -5, 0
2715, 256.25, 0, 0
2716, 262.5, 0, -5
2717, 262.5, 0, 10
2718, 262.5, -5, 10
2719, 256.25, 0, 10
2720, 262.5, 0, 5
2721, 262.5, 0, 20
2722, 262.5, -5, 20
2723, 256.25, 0, 20
2724, 262.5, 0, 15
2725, 262.5, 10, -20
2726, 262.5, 10, -10
2727, 262.5, 5, -20
2728, 256.25, 10, -20
2729, 262.5, 5, -10
2730, 256.25, 10, -10
2731, 262.5, 10, -15
2732, 262.5, 10, 0
2733, 262.5, 5, 0
2734, 256.25, 10, 0
2735, 262.5, 10, -5
2736, 262.5, 10, 10
2737, 262.5, 5, 10
2738, 256.25, 10, 10
2739, 262.5, 10, 5
2740, 262.5, 10, 20
2741, 262.5, 5, 20
2742, 256.25, 10, 20
2743, 262.5, 10, 15
2744, 262.5, 20, -20
2745, 262.5, 20, -10
2746, 262.5, 15, -20
2747, 256.25, 20, -20
2748, 262.5, 15, -10
2749, 256.25, 20, -10
2750, 262.5, 20, -15
2751, 262.5, 20, 0
2752, 262.5, 15, 0
2753, 256.25, 20, 0
2754, 262.5, 20, -5
2755, 262.5, 20, 10
2756, 262.5, 15, 10
2757, 256.25, 20, 10
2758, 262.5, 20, 5
2759, 262.5, 20, 20
2760, 262.5, 15, 20
2761, 256.25, 20, 20
2762, 262.5, 20, 15
2763, 262.5, 30, -20
2764, 262.5, 30, -10
2765, 262.5, 25, -20
2766, 256.25, 30, -20
2767, 262.5, 25, -10
2768, 256.25, 30, -10
2769, 262.5, 30, -15
2770, 262.5, 30, 0
2771, 262.5, 25, 0
2772, 256.25, 30, 0
2773, 262.5, 30, -5
2774, 262.5, 30, 10
2775, 262.5, 25, 10
2776, 256.25, 30, 10
2777, 262.5, 30, 5
2778, 262.5, 30, 20
2779, 262.5, 25, 20
2780, 256.25, 30, 20
2781, 262.5, 30, 15
2782, 275, -30, -20
2783, 275, -20, -20
2784, 275, -30, -10
2785, 275, -20, -10
2786, 268.75, -30, -20
2787, 275, -25, -20
2788, 268.75, -20, -20
2789, 268.75, -30, -10
2790, 275, -25, -10
2791, 268.75, -20, -10
2792, 275, -30, -15
2793, 275, -20, -15
2794, 275, -30, 0
2795, 275, -20, 0
2796, 268.75, -30, 0
2797, 275, -25, 0
2798, 268.75, -20, 0
2799, 275, -30, -5
2800, 275, -20, -5
2801, 275, -30, 10
2802, 275, -20, 10
2803, 268.75, -30, 10
2804, 275, -25, 10
2805, 268.75, -20, 10
2806, 275, -30, 5
2807, 275, -20, 5
2808, 275, -30, 20
2809, 275, -20, 20
2810, 268.75, -30, 20
2811, 275, -25, 20
2812, 268.75, -20, 20
2813, 275, -30, 15
2814, 275, -20, 15
2815, 275, -10, -20
2816, 275, -10, -10
2817, 275, -15, -20
2818, 268.75, -10, -20
2819, 275, -15, -10
2820, 268.75, -10, -10
2821, 275, -10, -15
2822, 275, -10, 0
2823, 275, -15, 0
2824, 268.75, -10, 0
2825, 275, -10, -5
2826, 275, -10, 10
2827, 275, -15, 10
2828, 268.75, -10, 10
2829, 275, -10, 5
2830, 275, -10, 20
2831, 275, -15, 20
2832, 268.75, -10, 20
2833, 275, -10, 15
2834, 275, 0, -20
2835, 275, 0, -10
2836, 275, -5, -20
2837, 268.75, 0, -20
2838, 275, -5, -10
2839, 268.75, 0, -10
2840, 275, 0, -15
2841, 275, 0, 0
2842, 275, -5, 0
2843, 268.75, 0, 0
2844, 275, 0, -5
2845, 275, 0, 10
2846, 275, -5, 10
2847, 268.75, 0, 10
2848, 275, 0, 5
2849, 275, 0, 20
2850, 275, -5, 20
2851, 268.75, 0, 20
2852, 275, 0, 15
2853, 275, 10, -20
2854, 275, 10, -10
2855, 275, 5, -20
2856, 268.75, 10, -20
2857, 275, 5, -10
2858, 268.75, 10, -10
2859, 275, 10, -15
2860, 275, 10, 0
2861, 275, 5, 0
2862, 268.75, 10, 0
2863, 275, 10, -5
2864, 275, 10, 10
2865, 275, 5, 10
2866, 268.75, 10, 10
2867, 275, 10, 5
2868, 275, 10, 20
2869, 275, 5, 20
2870, 268.75, 10, 20
2871, 275, 10, 15
2872, 275, 20, -20
2873, 275, 20, -10
2874, 275, 15, -20
2875, 268.75, 20, -20
2876, 275, 15, -10
2877, 268.75, 20, -10
2878, 275, 20, -15
2879, 275, 20, 0
2880, 275, 15, 0
2881, 268.75, 20, 0
2882, 275, 20, -5
2883, 275, 20, 10
2884, 275, 15, 10
2885, 268.75, 20, 10
2886, 275, 20, 5
2887, 275, 20, 20
2888, 275, 15, 20
2889, 268.75, 20, 20
2890, 275, 20, 15
2891, 275, 30, -20
2892, 275, 30, -10
2893, 275, 25, -20
2894, 268.75, 30, -20
2895, 275, 25, -10
2896, 268.75, 30, -10
2897, 275, 30, -15
2898, 275, 30, 0
2899, 275, 25, 0
2900, 268.75, 30, 0
2901, 275, 30, -5
2902, 275, 30, 10
2903, 275, 25, 10
2904, 268.75, 30, 10
2905, 275, 30, 5
2906, 275, 30, 20
2907, 275, 25, 20
2908, 268.75, 30, 20
2909, 275, 30, 15
2910, 287.5, -30, -20
2911, 287.5, -20, -20
2912, 287.5, -30, -10
2913, 287.5, -20, -10
2914, 281.25, -30, -20
2915, 287.5, -25, -20
2916, 281.25, -20, -20
2917, 281.25, -30, -10
2918, 287.5, -25, -10
2919, 281.25, -20, -10
2920, 287.5, -30, -15
2921, 287.5, -20, -15
2922, 287.5, -30, 0
2923, 287.5, -20, 0
2924, 281.25, -30, 0
2925, 287.5, -25, 0
2926, 281.25, -20, 0
2927, 287.5, -30, -5
2928, 287.5, -20, -5
2929, 287.5, -30, 10
2930, 287.5, -20, 10
2931, 281.25, -30, 10
2932, 287.5, -25, 10
2933, 281.25, -20, 10
2934, 287.5, -30, 5
2935, 287.5, -20, 5
2936, 287.5, -30, 20
2937, 287.5, -20, 20
2938, 281.25, -30, 20
2939, 287.5, -25, 20
2940, 281.25, -20, 20
2941, 287.5, -30, 15
2942, 287.5, -20, 15
2943, 287.5, -10, -20
2944, 287.5, -10, -10
2945, 287.5, -15, -20
2946, 281.25, -10, -20
2947, 287.5, -15, -10
2948, 281.25, -10, -10
2949, 287.5, -10, -15
2950, 287.5, -10, 0
2951, 287.5, -15, 0
2952, 281.25, -10, 0
2953, 287.5, -10, -5
2954, 287.5, -10, 10
2955, 287.5, -15, 10
2956, 281.25, -10, 10
2957, 287.5, -10, 5
2958, 287.5, -10, 20
2959, 287.5, -15, 20
2960, 281.25, -10, 20
2961, 287.5, -10, 15
2962, 287.5, 0, -20
2963, 287.5, 0, -10
2964, 287.5, -5, -20
2965, 281.25, 0, -20
2966, 287.5, -5, -10
2967, 281.25, 0, -10
2968, 287.5, 0, -15
2969, 287.5, 0, 0
2970, 287.5, -5, 0
2971, 281.25, 0, 0
2972, 287.5, 0, -5
2973, 287.5, 0, 10
2974, 287.5, -5, 10
2975, 281.25, 0, 10
2976, 287.5, 0, 5
2977, 287.5, 0, 20
2978, 287.5, -5, 20
2979, 281.25, 0, 20
2980, 287.5, 0, 15
2981, 287.5, 10, -20
2982, 287.5, 10, -10
2983, 287.5, 5, -20
2984, 281.25, 10, -20
2985, 287.5, 5, -10
2986, 281.25, 10, -10
2987, 287.5, 10, -15
2988, 287.5, 10, 0
2989, 287.5, 5, 0
2990, 281.25, 10, 0
2991, 287.5, 10, -5
2992, 287.5, 10, 10
2993, 287.5, 5, 10
2994, 281.25, 10, 10
2995, 287.5, 10, 5
2996, 287.5, 10, 20
2997, 287.5, 5, 20
2998, 281.25, 10, 20
2999, 287.5, 10, 15
3000, 287.5, 20, -20
3001, 287.5, 20, -10
3002, 287.5, 15, -20
3003, 281.25, 20, -20
3004, 287.5, 15, -10
3005, 281.25, 20, -10
3006, 287.5, 20, -15
3007, 287.5, 20, 0
3008, 287.5, 15, 0
3009, 281.25, 20, 0
3010, 287.5, 20, -5
3011, 287.5, 20, 10
3012, 287.5, 15, 10
3013, 281.25, 20, 10
3014, 287.5, 20, 5
3015, 287.5, 20, 20
3016, 287.5, 15, 20
3017, 281.25, 20, 20
3018, 287.5, 20, 15
3019, 287.5, 30, -20
3020, 287.5, 30, -10
3021, 287.5, 25, -20
3022, 281.25, 30, -20
3023, 287.5, 25, -10
3024, 281.25, 30, -10
3025, 287.5, 30, -15
3026, 287.5, 30, 0
3027, 287.5, 25, 0
3028, 281.25, 30, 0
3029, 287.5, 30, -5
3030, 287.5, 30, 10
3031, 287.5, 25, 10
3032, 281.25, 30, 10
3033, 287.5, 30, 5
3034, 287.5, 30, 20
3035, 287.5, 25, 20
3036, 281.25, 30, 20
3037, 287.5, 30, 15
3038, 300, -30, -20
3039, 300, -20, -20
3040, 300, -30, -10
3041, 300, -20, -10
3042, 293.75, -30, -20
3043, 300, -25, -20
3044, 293.75, -20, -20
3045, 293.75, -30, -10
3046, 300, -25, -10
3047, 293.75, -20, -10
3048, 300, -30, -15
3049, 300, -20, -15
3050, 300, -30, 0
3051, 300, -20, 0
3052, 293.75, -30, 0
3053, 300, -25, 0
3054, 293.75, -20, 0
3055, 300, -30, -5
3056, 300, -20, -5
3057, 300, -30, 10
3058, 300, -20, 10
3059, 293.75, -30, 10
3060, 300, -25, 10
3061, 293.75, -20, 10
3062, 300, -30, 5
3063, 300, -20, 5
3064, 300, -30, 20
3065, 300, -20, 20
3066, 293.75, -30, 20
3067, 300, -25, 20
3068, 293.75, -20, 20
3069, 300, -30, 15
3070, 300, -20, 15
3071, 300, -10, -20
3072, 300, -10, -10
3073, 300, -15, -20
3074, 293.75, -10, -20
3075, 300, -15, -10
3076, 293.75, -10, -10
3077, 300, -10, -15
3078, 300, -10, 0
3079, 300, -15, 0
3080, 293.75, -10, 0
3081, 300, -10, -5
3082, 300, -10, 10
3083, 300, -15, 10
3084, 293.75, -10, 10
3085, 300, -10, 5
3086, 300, -10, 20
3087, 300, -15, 20
3088, 293.75, -10, 20
3089, 300, -10, 15
3090, 300, 0, -20
3091, 300, 0, -10
3092, 300, -5, -20
3093, 293.75, 0, -20
3094, 300, -5, -10
3095, 293.75, 0, -10
3096, 300, 0, -15
3097, 300, 0, 0
3098, 300, -5, 0
3099, 293.75, 0, 0
3100, 300, 0, -5
3101, 300, 0, 10
3102, 300, -5, 10
3103, 293.75, 0, 10
3104, 300, 0, 5
3105, 300, 0, 20
3106, 300, -5, 20
3107, 293.75, 0, 20
3108, 300, 0, 15
3109, 300, 10, -20
3110, 300, 10, -10
3111, 300, 5, -20
3112, 293.75, 10, -20
3113, 300, 5, -10
3114, 293.75, 10, -10
3115, 300, 10, -15
3116, 300, 10, 0
3117, 300, 5, 0
3118, 293.75, 10, 0
3119, 300, 10, -5
3120, 300, 10, 10
3121, 300, 5, 10
3122, 293.75, 10, 10
3123, 300, 10, 5
3124, 300, 10, 20
3125, 300, 5, 20
3126, 293.75, 10, 20
3127, 300, 10, 15
3128, 300, 20, -20
3129, 300, 20, -10
3130, 300, 15, -20
3131, 293.75, 20, -20
3132, 300, 15, -10
3133, 293.75, 20, -10
3134, 300, 20, -15
3135, 300, 20, 0
3136, 300, 15, 0
3137, 293.75, 20, 0
3138, 300, 20, -5
3139, 300, 20, 10
3140, 300, 15, 10
3141, 293.75, 20, 10
3142, 300, 20, 5
3143, 300, 20, 20
3144, 300, 15, 20
3145, 293.75, 20, 20
3146, 300, 20, 15
3147, 300, 30, -20
3148, 300, 30, -10
3149, 300, 25, -20
3150, 293.75, 30, -20
3151, 300, 25, -10
3152, 293.75, 30, -10
3153, 300, 30, -15
3154, 300, 30, 0
3155, 300, 25, 0
3156, 293.75, 30, 0
3157, 300, 30, -5
3158, 300, 30, 10
3159, 300, 25, 10
3160, 293.75, 30, 10
3161, 300, 30, 5
3162, 300, 30, 20
3163, 300, 25, 20
3164, 293.75, 30, 20
3165, 300, 30, 15
3166, 300, 0, 0
*ELEMENT, TYPE=C3D20R, ELSET=EALL
1, 1, 2, 3, 4, 5, 6, 7, 8, 9, 10, 11, 12, 13, 14, 15,
16, 17, 18, 19, 20
2, 5, 6, 7, 8, 21, 22, 23, 24, 13, 14, 15, 16, 25, 26, 27,
28, 29, 30, 31, 32
3, 21, 22, 23, 24, 33, 34, 35, 36, 25, 26, 27, 28, 37, 38, 39,
40, 41, 42, 43, 44
4, 33, 34, 35, 36, 45, 46, 47, 48, 37, 38, 39, 40, 49, 50, 51,
52, 53, 54, 55, 56
5, 4, 3, 57, 58, 8, 7, 59, 60, 11, 61, 62, 63, 15, 64, 65,
66, 20, 19, 67, 68
6, 8, 7, 59, 60, 24, 23, 69, 70, 15, 64, 65, 66, 27, 71, 72,
73, 32, 31, 74, 75
7, 24, 23, 69, 70, 36, 35, 76, 77, 27, 71, 72, 73, 39, 78, 79,
80, 44, 43, 81, 82
8, 36, 35, 76, 77, 48, 47, 83, 84, 39, 78, 79, 80, 51, 85, 86,
87, 56, 55, 88, 89
9, 58, 57, 90, 91, 60, 59, 92, 93, 62, 94, 95, 96, 65, 97, 98,
99, 68, 67, 100, 101
10, 60, 59, 92, 93, 70, 69, 102, 103, 65, 97, 98, 99, 72, 104, 105,
106, 75, 74, 107, 108
11, 70, 69, 102, 103, 77, 76, 109, 110, 72, 104, 105, 106, 79, 111, 112,
113, 82, 81, 114, 115
12, 77, 76, 109, 110, 84, 83, 116, 117, 79, 111, 112, 113, 86, 118, 119,
120, 89, 88, 121, 122
13, 91, 90, 123, 124, 93, 92, 125, 126, 95, 127, 128, 129, 98, 130, 131,
132, 101, 100, 133, 134
14, 93, 92, 125, 126, 103, 102, 135, 136, 98, 130, 131, 132, 105, 137, 138,
139, 108, 107, 140, 141
15, 103, 102, 135, 136, 110, 109, 142, 143, 105, 137, 138, 139, 112, 144, 145,
146, 115, 114, 147, 148
16, 110, 109, 142, 143, 117, 116, 149, 150, 112, 144, 145, 146, 119, 151, 152,
153, 122, 121, 154, 155
17, 124, 123, 156, 157, 126, 125, 158, 159, 128, 160, 161, 162, 131, 163, 164,
165, 134, 133, 166, 167
18, 126, 125, 158, 159, 136, 135, 168, 169, 131, 163, 164, 165, 138, 170, 171,
172, 141, 140, 173, 174
19, 136, 135, 168, 169, 143, 142, 175, 176, 138, 170, 171, 172, 145, 177, 178,
179, 148, 147, 180, 181
20, 143, 142, 175, 176, 150, 149, 182, 183, 145, 177, 178, 179, 152, 184, 185,
186, 155, 154, 187, 188
21, 157, 156, 189, 190, 159, 158, 191, 192, 161, 193, 194, 195, 164, 196, 197,
198, 167, 166, 199, 200
22, 159, 158, 191, 192, 169, 168, 201, 202, 164, 196, 197, 198, 171, 203, 204,
205, 174, 173, 206, 207
23, 169, 168, 201, 202, 176, 175, 208, 209, 171, 203, 204, 205, 178, 210, 211,
212, 181, 180, 213, 214
24, 176, 175, 208, 209, 183, 182, 215, 216, 178, 210, 211, 212, 185, 217, 218,
219, 188, 187, 220, 221
25, 2, 222, 223, 3, 6, 224, 225, 7, 226, 227, 228, 10, 229, 230, 231,
14, 18, 232, 233, 19
26, 6, 224, 225, 7, 22, 234, 235, 23, 229, 230, 231, 14, 236, 237, 238,
26, 30, 239, 240, 31
27, 22, 234, 235, 23, 34, 241, 242, 35, 236, 237, 238, 26, 243, 244, 245,
38, 42, 246, 247, 43
28, 34, 241, 242, 35, 46, 248, 249, 47, 243, 244, 245, 38, 250, 251, 252,
50, 54, 253, 254, 55
29, 3, 223, 255, 57, 7, 225, 256, 59, 228, 257, 258, 61, 231, 259, 260,
64, 19, 233, 261, 67
30, 7, 225, 256, 59, 23, 235, 262, 69, 231, 259, 260, 64, 238, 263, 264,
71, 31, 240, 265, 74
31, 23, 235, 262, 69, 35, 242, 266, 76, 238, 263, 264, 71, 245, 267, 268,
78, 43, 247, 269, 81
32, 35, 242, 266, 76, 47, 249, 270, 83, 245, 267, 268, 78, 252, 271, 272,
85, 55, 254, 273, 88
33, 57, 255, 274, 90, 59, 256, 275, 92, 258, 276, 277, 94, 260, 278, 279,
97, 67, 261, 280, 100
34, 59, 256, 275, 92, 69, 262, 281, 102, 260, 278, 279, 97, 264, 282, 283,
104, 74, 265, 284, 107
35, 69, 262, 281, 102, 76, 266, 285, 109, 264, 282, 283, 104, 268, 286, 287,
111, 81, 269, 288, 114
36, 76, 266, 285, 109, 83, 270, 289, 116, 268, 286, 287, 111, 272, 290, 291,
118, 88, 273, 292, 121
37, 90, 274, 293, 123, 92, 275, 294, 125, 277, 295, 296, 127, 279, 297, 298,
130, 100, 280, 299, 133
38, 92, 275, 294, 125, 102, 281, 300, 135, 279, 297, 298, 130, 283, 301, 302,
137, 107, 284, 303, 140
39, 102, 281, 300, 135, 109, 285, 304, 142, 283, 301, 302, 137, 287, 305, 306,
144, 114, 288, 307, 147
40, 109, 285, 304, 142, 116, 289, 308, 149, 287, 305, 306, 144, 291, 309, 310,
151, 121, 292, 311, 154
41, 123, 293, 312, 156, 125, 294, 313, 158, 296, 314, 315, 160, 298, 316, 317,
163, 133, 299, 318, 166
42, 125, 294, 313, 158, 135, 300, 319, 168, 298, 316, 317, 163, 302, 320, 321,
170, 140, 303, 322, 173
43, 135, 300, 319, 168, 142, 304, 323, 175, 302, 320, 321, 170, 306, 324, 325,
177, 147, 307, 326, 180
44, 142, 304, 323, 175, 149, 308, 327, 182, 306, 324, 325, 177, 310, 328, 329,
184, 154, 311, 330, 187
45, 156, 312, 331, 189, 158, 313, 332, 191, 315, 333, 334, 193, 317, 335, 336,
196, 166, 318, 337, 199
46, 158, 313, 332, 191, 168, 319, 338, 201, 317, 335, 336, 196, 321, 339, 340,
203, 173, 322, 341, 206
47, 168, 319, 338, 201, 175, 323, 342, 208, 321, 339, 340, 203, 325, 343, 344,
210, 180, 326, 345, 213
48, 175, 323, 342, 208, 182, 327, 346, 215, 325, 343, 344, 210, 329, 347, 348,
217, 187, 330, 349, 220
49, 222, 350, 351, 223, 224, 352, 353, 225, 354, 355, 356, 227, 357, 358, 359,
230, 232, 360, 361, 233
50, 224, 352, 353, 225, 234, 362, 363, 235, 357, 358, 359, 230, 364, 365, 366,
237, 239, 367, 368, 240
51, 234, 362, 363, 235, 241, 369, 370, 242, 364, 365, 366, 237, 371, 372, 373,
244, 246, 374, 375, 247
52, 241, 369, 370, 242, 248, 376, 377, 249, 371, 372, 373, 244, 378, 379, 380,
251, 253, 381, 382, 254
53, 223, 351, 383, 255, 225, 353, 384, 256, 356, 385, 386, 257, 359, 387, 388,
259, 233, 361, 389, 261
54, 225, 353, 384, 256, 235, 363, 390, 262, 359, 387, 388, 259, 366, 391, 392,
263, 240, 368, 393, 265
55, 235, 363, 390, 262, 242, 370, 394, 266, 366, 391, 392, 263, 373, 395, 396,
267, 247, 375, 397, 269
56, 242, 370, 394, 266, 249, 377, 398, 270, 373, 395, 396, 267, 380, 399, 400,
271, 254, 382, 401, 273
57, 255, 383, 402, 274, 256, 384, 403, 275, 386, 404, 405, 276, 388, 406, 407,
278, 261, 389, 408, 280
58, 256, 384, 403, 275, 262, 390, 409, 281, 388, 406, 407, 278, 392, 410, 411,
282, 265, 393, 412, 284
59, 262, 390, 409, 281, 266, 394, 413, 285, 392, 410, 411, 282, 396, 414, 415,
286, 269, 397, 416, 288
60, 266, 394, 413, 285, 270, 398, 417, 289, 396, 414, 415, 286, 400, 418, 419,
290, 273, 401, 420, 292
61, 274, 402, 421, 293, 275, 403, 422, 294, 405, 423, 424, 295, 407, 425, 426,
297, 280, 408, 427, 299
62, 275, 403, 422, 294, 281, 409, 428, 300, 407, 425, 426, 297, 411, 429, 430,
301, 284, 412, 431, 303
63, 281, 409, 428, 300, 285, 413, 432, 304, 411, 429, 430, 301, 415, 433, 434,
305, 288, 416, 435, 307
64, 285, 413, 432, 304, 289, 417, 436, 308, 415, 433, 434, 305, 419, 437, 438,
309, 292, 420, 439, 311
65, 293, 421, 440, 312, 294, 422, 441, 313, 424, 442, 443, 314, 426, 444, 445,
316, 299, 427, 446, 318
66, 294, 422, 441, 313, 300, 428, 447, 319, 426, 444, 445, 316, 430, 448, 449,
320, 303, 431, 450, 322
67, 300, 428, 447, 319, 304, 432, 451, 323, 430, 448, 449, 320, 434, 452, 453,
324, 307, 435, 454, 326
68, 304, 432, 451, 323, 308, 436, 455, 327, 434, 452, 453, 324, 438, 456, 457,
328, 311, 439, 458, 330
69, 312, 440, 459, 331, 313, 441, 460, 332, 443, 461, 462, 333, 445, 463, 464,
335, 318, 446, 465, 337
70, 313, 441, 460, 332, 319, 447, 466, 338, 445, 463, 464, 335, 449, 467, 468,
339, 322, 450, 469, 341
71, 319, 447, 466, 338, 323, 451, 470, 342, 449, 467, 468, 339, 453, 471, 472,
343, 326, 454, 473, 345
72, 323, 451, 470, 342, 327, 455, 474, 346, 453, 471, 472, 343, 457, 475, 476,
347, 330, 458, 477, 349
73, 350, 478, 479, 351, 352, 480, 481, 353, 482, 483, 484, 355, 485, 486, 487,
358, 360, 488, 489, 361
74, 352, 480, 481, 353, 362, 490, 491, 363, 485, 486, 487, 358, 492, 493, 494,
365, 367, 495, 496, 368
75, 362, 490, 491, 363, 369, 497, 498, 370, 492, 493, 494, 365, 499, 500, 501,
372, 374, 502, 503, 375
76, 369, 497, 498, 370, 376, 504, 505, 377, 499, 500, 501, 372, 506, 507, 508,
379, 381, 509, 510, 382
77, 351, 479, 511, 383, 353, 481, 512, 384, 484, 513, 514, 385, 487, 515, 516,
387, 361, 489, 517, 389
78, 353, 481, 512, 384, 363, 491, 518, 390, 487, 515, 516, 387, 494, 519, 520,
391, 368, 496, 521, 393
79, 363, 491, 518, 390, 370, 498, 522, 394, 494, 519, 520, 391, 501, 523, 524,
395, 375, 503, 525, 397
80, 370, 498, 522, 394, 377, 505, 526, 398, 501, 523, 524, 395, 508, 527, 528,
399, 382, 510, 529, 401
81, 383, 511, 530, 402, 384, 512, 531, 403, 514, 532, 533, 404, 516, 534, 535,
406, 389, 517, 536, 408
82, 384, 512, 531, 403, 390, 518, 537, 409, 516, 534, 535, 406, 520, 538, 539,
410, 393, 521, 540, 412
83, 390, 518, 537, 409, 394, 522, 541, 413, 520, 538, 539, 410, 524, 542, 543,
414, 397, 525, 544, 416
84, 394, 522, 541, 413, 398, 526, 545, 417, 524, 542, 543, 414, 528, 546, 547,
418, 401, 529, 548, 420
85, 402, 530, 549, 421, 403, 531, 550, 422, 533, 551, 552, 423, 535, 553, 554,
425, 408, 536, 555, 427
86, 403, 531, 550, 422, 409, 537, 556, 428, 535, 553, 554, 425, 539, 557, 558,
429, 412, 540, 559, 431
87, 409, 537, 556, 428, 413, 541, 560, 432, 539, 557, 558, 429, 543, 561, 562,
433, 416, 544, 563, 435
88, 413, 541, 560, 432, 417, 545, 564, 436, 543, 561, 562, 433, 547, 565, 566,
437, 420, 548, 567, 439
89, 421, 549, 568, 440, 422, 550, 569, 441, 552, 570, 571, 442, 554, 572, 573,
444, 427, 555, 574, 446
90, 422, 550, 569, 441, 428, 556, 575, 447, 554, 572, 573, 444, 558, 576, 577,
448, 431, 559, 578, 450
91, 428, 556, 575, 447, 432, 560, 579, 451, 558, 576, 577, 448, 562, 580, 581,
452, 435, 563, 582, 454
92, 432, 560, 579, 451, 436, 564, 583, 455, 562, 580, 581, 452, 566, 584, 585,
456, 439, 567, 586, 458
93, 440, 568, 587, 459, 441, 569, 588, 460, 571, 589, 590, 461, 573, 591, 592,
463, 446, 574, 593, 465
94, 441, 569, 588, 460, 447, 575, 594, 466, 573, 591, 592, 463, 577, 595, 596,
467, 450, 578, 597, 469
95, 447, 575, 594, 466, 451, 579, 598, 470, 577, 595, 596, 467, 581, 599, 600,
471, 454, 582, 601, 473
96, 451, 579, 598, 470, 455, 583, 602, 474, 581, 599, 600, 471, 585, 603, 604,
475, 458, 586, 605, 477
97, 478, 606, 607, 479, 480, 608, 609, 481, 610, 611, 612, 483, 613, 614, 615,
486, 488, 616, 617, 489
98, 480, 608, 609, 481, 490, 618, 619, 491, 613, 614, 615, 486, 620, 621, 622,
493, 495, 623, 624, 496
99, 490, 618, 619, 491, 497, 625, 626, 498, 620, 621, 622, 493, 627, 628, 629,
500, 502, 630, 631, 503
100, 497, 625, 626, 498, 504, 632, 633, 505, 627, 628, 629, 500, 634, 635, 636,
507, 509, 637, 638, 510
101, 479, 607, 639, 511, 481, 609, 640, 512, 612, 641, 642, 513, 615, 643, 644,
515, 489, 617, 645, 517
102, 481, 609, 640, 512, 491, 619, 646, 518, 615, 643, 644, 515, 622, 647, 648,
519, 496, 624, 649, 521
103, 491, 619, 646, 518, 498, 626, 650, 522, 622, 647, 648, 519, 629, 651, 652,
523, 503, 631, 653, 525
104, 498, 626, 650, 522, 505, 633, 654, 526, 629, 651, 652, 523, 636, 655, 656,
527, 510, 638, 657, 529
105, 511, 639, 658, 530, 512, 640, 659, 531, 642, 660, 661, 532, 644, 662, 663,
534, 517, 645, 664, 536
106, 512, 640, 659, 531, 518, 646, 665, 537, 644, 662, 663, 534, 648, 666, 667,
538, 521, 649, 668, 540
107, 518, 646, 665, 537, 522, 650, 669, 541, 648, 666, 667, 538, 652, 670, 671,
542, 525, 653, 672, 544
108, 522, 650, 669, 541, 526, 654, 673, 545, 652, 670, 671, 542, 656, 674, 675,
546, 529, 657, 676, 548
109, 530, 658, 677, 549, 531, 659, 678, 550, 661, 679, 680, 551, 663, 681, 682,
553, 536, 664, 683, 555
110, 531, 659, 678, 550, 537, 665, 684, 556, 663, 681, 682, 553, 667, 685, 686,
557, 540, 668, 687, 559
111, 537, 665, 684, 556, 541, 669, 688, 560, 667, 685, 686, 557, 671, 689, 690,
561, 544, 672, 691, 563
112, 541, 669, 688, 560, 545, 673, 692, 564, 671, 689, 690, 561, 675, 693, 694,
565, 548, 676, 695, 567
113, 549, 677, 696, 568, 550, 678, 697, 569, 680, 698, 699, 570, 682, 700, 701,
572, 555, 683, 702, 574
114, 550, 678, 697, 569, 556, 684, 703, 575, 682, 700, 701, 572, 686, 704, 705,
576, 559, 687, 706, 578
115, 556, 684, 703, 575, 560, 688, 707, 579, 686, 704, 705, 576, 690, 708, 709,
580, 563, 691, 710, 582
116, 560, 688, 707, 579, 564, 692, 711, 583, 690, 708, 709, 580, 694, 712, 713,
584, 567, 695, 714, 586
117, 568, 696, 715, 587, 569, 697, 716, 588, 699, 717, 718, 589, 701, 719, 720,
591, 574, 702, 721, 593
118, 569, 697, 716, 588, 575, 703, 722, 594, 701, 719, 720, 591, 705, 723, 724,
595, 578, 706, 725, 597
119, 575, 703, 722, 594, 579, 707, 726, 598, 705, 723, 724, 595, 709, 727, 728,
599, 582, 710, 729, 601
120, 579, 707, 726, 598, 583, 711, 730, 602, 709, 727, 728, 599, 713, 731, 732,
603, 586, 714, 733, 605
121, 606, 734, 735, 607, 608, 736, 737, 609, 738, 739, 740, 611, 741, 742, 743,
614, 616, 744, 745, 617
122, 608, 736, 737, 609, 618, 746, 747, 619, 741, 742, 743, 614, 748, 749, 750,
621, 623, 751, 752, 624
123, 618, 746, 747, 619, 625, 753, 754, 626, 748, 749, 750, 621, 755, 756, 757,
628, 630, 758, 759, 631
124, 625, 753, 754, 626, 632, 760, 761, 633, 755, 756, 757, 628, 762, 763, 764,
635, 637, 765, 766, 638
125, 607, 735, 767, 639, 609, 737, 768, 640, 740, 769, 770, 641, 743, 771, 772,
643, 617, 745, 773, 645
126, 609, 737, 768, 640, 619, 747, 774, 646, 743, 771, 772, 643, 750, 775, 776,
647, 624, 752, 777, 649
127, 619, 747, 774, 646, 626, 754, 778, 650, 750, 775, 776, 647, 757, 779, 780,
651, 631, 759, 781, 653
128, 626, 754, 778, 650, 633, 761, 782, 654, 757, 779, 780, 651, 764, 783, 784,
655, 638, 766, 785, 657
129, 639, 767, 786, 658, 640, 768, 787, 659, 770, 788, 789, 660, 772, 790, 791,
662, 645, 773, 792, 664
130, 640, 768, 787, 659, 646, 774, 793, 665, 772, 790, 791, 662, 776, 794, 795,
666, 649, 777, 796, 668
131, 646, 774, 793, 665, 650, 778, 797, 669, 776, 794, 795, 666, 780, 798, 799,
670, 653, 781, 800, 672
132, 650, 778, 797, 669, 654, 782, 801, 673, 780, 798, 799, 670, 784, 802, 803,
674, 657, 785, 804, 676
133, 658, 786, 805, 677, 659, 787, 806, 678, 789, 807, 808, 679, 791, 809, 810,
681, 664, 792, 811, 683
134, 659, 787, 806, 678, 665, 793, 812, 684, 791, 809, 810, 681, 795, 813, 814,
685, 668, 796, 815, 687
135, 665, 793, 812, 684, 669, 797, 816, 688, 795, 813, 814, 685, 799, 817, 818,
689, 672, 800, 819, 691
136, 669, 797, 816, 688, 673, 801, 820, 692, 799, 817, 818, 689, 803, 821, 822,
693, 676, 804, 823, 695
137, 677, 805, 824, 696, 678, 806, 825, 697, 808, 826, 827, 698, 810, 828, 829,
700, 683, 811, 830, 702
138, 678, 806, 825, 697, 684, 812, 831, 703, 810, 828, 829, 700, 814, 832, 833,
704, 687, 815, 834, 706
139, 684, 812, 831, 703, 688, 816, 835, 707, 814, 832, 833, 704, 818, 836, 837,
708, 691, 819, 838, 710
140, 688, 816, 835, 707, 692, 820, 839, 711, 818, 836, 837, 708, 822, 840, 841,
712, 695, 823, 842, 714
141, 696, 824, 843, 715, 697, 825, 844, 716, 827, 845, 846, 717, 829, 847, 848,
719, 702, 830, 849, 721
142, 697, 825, 844, 716, 703, 831, 850, 722, 829, 847, 848, 719, 833, 851, 852,
723, 706, 834, 853, 725
143, 703, 831, 850, 722, 707, 835, 854, 726, 833, 851, 852, 723, 837, 855, 856,
727, 710, 838, 857, 729
144, 707, 835, 854, 726, 711, 839, 858, 730, 837, 855, 856, 727, 841, 859, 860,
731, 714, 842, 861, 733
145, 734, 862, 863, 735, 736, 864, 865, 737, 866, 867, 868, 739, 869, 870, 871,
742, 744, 872, 873, 745
146, 736, 864, 865, 737, 746, 874, 875, 747, 869, 870, 871, 742, 876, 877, 878,
749, 751, 879, 880, 752
147, 746, 874, 875, 747, 753, 881, 882, 754, 876, 877, 878, 749, 883, 884, 885,
756, 758, 886, 887, 759
148, 753, 881, 882, 754, 760, 888, 889, 761, 883, 884, 885, 756, 890, 891, 892,
763, 765, 893, 894, 766
149, 735, 863, 895, 767, 737, 865, 896, 768, 868, 897, 898, 769, 871, 899, 900,
771, 745, 873, 901, 773
150, 737, 865, 896, 768, 747, 875, 902, 774, 871, 899, 900, 771, 878, 903, 904,
775, 752, 880, 905, 777
151, 747, 875, 902, 774, 754, 882, 906, 778, 878, 903, 904, 775, 885, 907, 908,
779, 759, 887, 909, 781
152, 754, 882, 906, 778, 761, 889, 910, 782, 885, 907, 908, 779, 892, 911, 912,
783, 766, 894, 913, 785
153, 767, 895, 914, 786, 768, 896, 915, 787, 898, 916, 917, 788, 900, 918, 919,
790, 773, 901, 920, 792
154, 768, 896, 915, 787, 774, 902, 921, 793, 900, 918, 919, 790, 904, 922, 923,
794, 777, 905, 924, 796
155, 774, 902, 921, 793, 778, 906, 925, 797, 904, 922, 923, 794, 908, 926, 927,
798, 781, 909, 928, 800
156, 778, 906, 925, 797, 782, 910, 929, 801, 908, 926, 927, 798, 912, 930, 931,
802, 785, 913, 932, 804
157, 786, 914, 933, 805, 787, 915, 934, 806, 917, 935, 936, 807, 919, 937, 938,
809, 792, 920, 939, 811
158, 787, 915, 934, 806, 793, 921, 940, 812, 919, 937, 938, 809, 923, 941, 942,
813, 796, 924, 943, 815
159, 793, 921, 940, 812, 797, 925, 944, 816, 923, 941, 942, 813, 927, 945, 946,
817, 800, 928, 947, 819
160, 797, 925, 944, 816, 801, 929, 948, 820, 927, 945, 946, 817, 931, 949, 950,
821, 804, 932, 951, 823
161, 805, 933, 952, 824, 806, 934, 953, 825, 936, 954, 955, 826, 938, 956, 957,
828, 811, 939, 958, 830
162, 806, 934, 953, 825, 812, 940, 959, 831, 938, 956, 957, 828, 942, 960, 961,
832, 815, 943, 962, 834
163, 812, 940, 959, 831, 816, 944, 963, 835, 942, 960, 961, 832, 946, 964, 965,
836, 819, 947, 966, 838
164, 816, 944, 963, 835, 820, 948, 967, 839, 946, 964, 965, 836, 950, 968, 969,
840, 823, 951, 970, 842
165, 824, 952, 971, 843, 825, 953, 972, 844, 955, 973, 974, 845, 957, 975, 976,
847, 830, 958, 977, 849
166, 825, 953, 972, 844, 831, 959, 978, 850, 957, 975, 976, 847, 961, 979, 980,
851, 834, 962, 981, 853
167, 831, 959, 978, 850, 835, 963, 982, 854, 961, 979, 980, 851, 965, 983, 984,
855, 838, 966, 985, 857
168, 835, 963, 982, 854, 839, 967, 986, 858, 965, 983, 984, 855, 969, 987, 988,
859, 842, 970, 989, 861
169, 862, 990, 991, 863, 864, 992, 993, 865, 994, 995, 996, 867, 997, 998, 999,
870, 872, 1000, 1001, 873
170, 864, 992, 993, 865, 874, 1002, 1003, 875, 997, 998, 999, 870, 1004, 1005, 1006,
877, 879, 1007, 1008, 880
171, 874, 1002, 1003, 875, 881, 1009, 1010, 882, 1004, 1005, 1006, 877, 1011, 1012, 1013,
884, 886, 1014, 1015, 887
172, 881, 1009, 1010, 882, 888, 1016, 1017, 889, 1011, 1012, 1013, 884, 1018, 1019, 1020,
891, 893, 1021, 1022, 894
173, 863, 991, 1023, 895, 865, 993, 1024, 896, 996, 1025, 1026, 897, 999, 1027, 1028,
899, 873, 1001, 1029, 901
174, 865, 993, 1024, 896, 875, 1003, 1030, 902, 999, 1027, 1028, 899, 1006, 1031, 1032,
903, 880, 1008, 1033, 905
175, 875, 1003, 1030, 902, 882, 1010, 1034, 906, 1006, 1031, 1032, 903, 1013, 1035, 1036,
907, 887, 1015, 1037, 909
176, 882, 1010, 1034, 906, 889, 1017, 1038, 910, 1013, 1035, 1036, 907, 1020, 1039, 1040,
911, 894, 1022, 1041, 913
177, 895, 1023, 1042, 914, 896, 1024, 1043, 915, 1026, 1044, 1045, 916, 1028, 1046, 1047,
918, 901, 1029, 1048, 920
178, 896, 1024, 1043, 915, 902, 1030, 1049, 921, 1028, 1046, 1047, 918, 1032, 1050, 1051,
922, 905, 1033, 1052, 924
179, 902, 1030, 1049, 921, 906, 1034, 1053, 925, 1032, 1050, 1051, 922, 1036, 1054, 1055,
926, 909, 1037, 1056, 928
180, 906, 1034, 1053, 925, 910, 1038, 1057, 929, 1036, 1054, 1055, 926, 1040, 1058, 1059,
930, 913, 1041, 1060, 932
181, 914, 1042, 1061, 933, 915, 1043, 1062, 934, 1045, 1063, 1064, 935, 1047, 1065, 1066,
937, 920, 1048, 1067, 939
182, 915, 1043, 1062, 934, 921, 1049, 1068, 940, 1047, 1065, 1066, 937, 1051, 1069, 1070,
941, 924, 1052, 1071, 943
183, 921, 1049, 1068, 940, 925, 1053, 1072, 944, 1051, 1069, 1070, 941, 1055, 1073, 1074,
945, 928, 1056, 1075, 947
184, 925, 1053, 1072, 944, 929, 1057, 1076, 948, 1055, 1073, 1074, 945, 1059, 1077, 1078,
949, 932, 1060, 1079, 951
185, 933, 1061, 1080, 952, 934, 1062, 1081, 953, 1064, 1082, 1083, 954, 1066, 1084, 1085,
956, 939, 1067, 1086, 958
186, 934, 1062, 1081, 953, 940, 1068, 1087, 959, 1066, 1084, 1085, 956, 1070, 1088, 1089,
960, 943, 1071, 1090, 962
187, 940, 1068, 1087, 959, 944, 1072, 1091, 963, 1070, 1088, 1089, 960, 1074, 1092, 1093,
964, 947, 1075, 1094, 966
188, 944, 1072, 1091, 963, 948, 1076, 1095, 967, 1074, 1092, 1093, 964, 1078, 1096, 1097,
968, 951, 1079, 1098, 970
189, 952, 1080, 1099, 971, 953, 1081, 1100, 972, 1083, 1101, 1102, 973, 1085, 1103, 1104,
975, 958, 1086, 1105, 977
190, 953, 1081, 1100, 972, 959, 1087, 1106, 978, 1085, 1103, 1104, 975, 1089, 1107, 1108,
979, 962, 1090, 1109, 981
191, 959, 1087, 1106, 978, 963, 1091, 1110, 982, 1089, 1107, 1108, 979, 1093, 1111, 1112,
983, 966, 1094, 1113, 985
192, 963, 1091, 1110, 982, 967, 1095, 1114, 986, 1093, 1111, 1112, 983, 1097, 1115, 1116,
987, 970, 1098, 1117, 989
193, 990, 1118, 1119, 991, 992, 1120, 1121, 993, 1122, 1123, 1124, 995, 1125, 1126, 1127,
998, 1000, 1128, 1129, 1001
194, 992, 1120, 1121, 993, 1002, 1130, 1131, 1003, 1125, 1126, 1127, 998, 1132, 1133, 1134,
1005, 1007, 1135, 1136, 1008
195, 1002, 1130, 1131, 1003, 1009, 1137, 1138, 1010, 1132, 1133, 1134, 1005, 1139, 1140, 1141,
1012, 1014, 1142, 1143, 1015
196, 1009, 1137, 1138, 1010, 1016, 1144, 1145, 1017, 1139, 1140, 1141, 1012, 1146, 1147, 1148,
1019, 1021, 1149, 1150, 1022
197, 991, 1119, 1151, 1023, 993, 1121, 1152, 1024, 1124, 1153, 1154, 1025, 1127, 1155, 1156,
1027, 1001, 1129, 1157, 1029
198, 993, 1121, 1152, 1024, 1003, 1131, 1158, 1030, 1127, 1155, 1156, 1027, 1134, 1159, 1160,
1031, 1008, 1136, 1161, 1033
199, 1003, 1131, 1158, 1030, 1010, 1138, 1162, 1034, 1134, 1159, 1160, 1031, 1141, 1163, 1164,
1035, 1015, 1143, 1165, 1037
200, 1010, 1138, 1162, 1034, 1017, 1145, 1166, 1038, 1141, 1163, 1164, 1035, 1148, 1167, 1168,
1039, 1022, 1150, 1169, 1041
201, 1023, 1151, 1170, 1042, 1024, 1152, 1171, 1043, 1154, 1172, 1173, 1044, 1156, 1174, 1175,
1046, 1029, 1157, 1176, 1048
202, 1024, 1152, 1171, 1043, 1030, 1158, 1177, 1049, 1156, 1174, 1175, 1046, 1160, 1178, 1179,
1050, 1033, 1161, 1180, 1052
203, 1030, 1158, 1177, 1049, 1034, 1162, 1181, 1053, 1160, 1178, 1179, 1050, 1164, 1182, 1183,
1054, 1037, 1165, 1184, 1056
204, 1034, 1162, 1181, 1053, 1038, 1166, 1185, 1057, 1164, 1182, 1183, 1054, 1168, 1186, 1187,
1058, 1041, 1169, 1188, 1060
205, 1042, 1170, 1189, 1061, 1043, 1171, 1190, 1062, 1173, 1191, 1192, 1063, 1175, 1193, 1194,
1065, 1048, 1176, 1195, 1067
206, 1043, 1171, 1190, 1062, 1049, 1177, 1196, 1068, 1175, 1193, 1194, 1065, 1179, 1197, 1198,
1069, 1052, 1180, 1199, 1071
207, 1049, 1177, 1196, 1068, 1053, 1181, 1200, 1072, 1179, 1197, 1198, 1069, 1183, 1201, 1202,
1073, 1056, 1184, 1203, 1075
208, 1053, 1181, 1200, 1072, 1057, 1185, 1204, 1076, 1183, 1201, 1202, 1073, 1187, 1205, 1206,
1077, 1060, 1188, 1207, 1079
209, 1061, 1189, 1208, 1080, 1062, 1190, 1209, 1081, 1192, 1210, 1211, 1082, 1194, 1212, 1213,
1084, 1067, 1195, 1214, 1086
210, 1062, 1190, 1209, 1081, 1068, 1196, 1215, 1087, 1194, 1212, 1213, 1084, 1198, 1216, 1217,
1088, 1071, 1199, 1218, 1090
211, 1068, 1196, 1215, 1087, 1072, 1200, 1219, 1091, 1198, 1216, 1217, 1088, 1202, 1220, 1221,
1092, 1075, 1203, 1222, 1094
212, 1072, 1200, 1219, 1091, 1076, 1204, 1223, 1095, 1202, 1220, 1221, 1092, 1206, 1224, 1225,
1096, 1079, 1207, 1226, 1098
213, 1080, 1208, 1227, 1099, 1081, 1209, 1228, 1100, 1211, 1229, 1230, 1101, 1213, 1231, 1232,
1103, 1086, 1214, 1233, 1105
214, 1081, 1209, 1228, 1100, 1087, 1215, 1234, 1106, 1213, 1231, 1232, 1103, 1217, 1235, 1236,
1107, 1090, 1218, 1237, 1109
215, 1087, 1215, 1234, 1106, 1091, 1219, 1238, 1110, 1217, 1235, 1236, 1107, 1221, 1239, 1240,
1111, 1094, 1222, 1241, 1113
216, 1091, 1219, 1238, 1110, 1095, 1223, 1242, 1114, 1221, 1239, 1240, 1111, 1225, 1243, 1244,
1115, 1098, 1226, 1245, 1117
217, 1118, 1246, 1247, 1119, 1120, 1248, 1249, 1121, 1250, 1251, 1252, 1123, 1253, 1254, 1255,
1126, 1128, 1256, 1257, 1129
218, 1120, 1248, 1249, 1121, 1130, 1258, 1259, 1131, 1253, 1254, 1255, 1126, 1260, 1261, 1262,
1133, 1135, 1263, 1264, 1136
219, 1130, 1258, 1259, 1131, 1137, 1265, 1266, 1138, 1260, 1261, 1262, 1133, 1267, 1268, 1269,
1140, 1142, 1270, 1271, 1143
220, 1137, 1265, 1266, 1138, 1144, 1272, 1273, 1145, 1267, 1268, 1269, 1140, 1274, 1275, 1276,
1147, 1149, 1277, 1278, 1150
221, 1119, 1247, 1279, 1151, 1121, 1249, 1280, 1152, 1252, 1281, 1282, 1153, 1255, 1283, 1284,
1155, 1129, 1257, 1285, 1157
222, 1121, 1249, 1280, 1152, 1131, 1259, 1286, 1158, 1255, 1283, 1284, 1155, 1262, 1287, 1288,
1159, 1136, 1264, 1289, 1161
223, 1131, 1259, 1286, 1158, 1138, 1266, 1290, 1162, 1262, 1287, 1288, 1159, 1269, 1291, 1292,
1163, 1143, 1271, 1293, 1165
224, 1138, 1266, 1290, 1162, 1145, 1273, 1294, 1166, 1269, 1291, 1292, 1163, 1276, 1295, 1296,
1167, 1150, 1278, 1297, 1169
225, 1151, 1279, 1298, 1170, 1152, 1280, 1299, 1171, 1282, 1300, 1301, 1172, 1284, 1302, 1303,
1174, 1157, 1285, 1304, 1176
226, 1152, 1280, 1299, 1171, 1158, 1286, 1305, 1177, 1284, 1302, 1303, 1174, 1288, 1306, 1307,
1178, 1161, 1289, 1308, 1180
227, 1158, 1286, 1305, 1177, 1162, 1290, 1309, 1181, 1288, 1306, 1307, 1178, 1292, 1310, 1311,
1182, 1165, 1293, 1312, 1184
228, 1162, 1290, 1309, 1181, 1166, 1294, 1313, 1185, 1292, 1310, 1311, 1182, 1296, 1314, 1315,
1186, 1169, 1297, 1316, 1188
229, 1170, 1298, 1317, 1189, 1171, 1299, 1318, 1190, 1301, 1319, 1320, 1191, 1303, 1321, 1322,
1193, 1176, 1304, 1323, 1195
230, 1171, 1299, 1318, 1190, 1177, 1305, 1324, 1196, 1303, 1321, 1322, 1193, 1307, 1325, 1326,
1197, 1180, 1308, 1327, 1199
231, 1177, 1305, 1324, 1196, 1181, 1309, 1328, 1200, 1307, 1325, 1326, 1197, 1311, 1329, 1330,
1201, 1184, 1312, 1331, 1203
232, 1181, 1309, 1328, 1200, 1185, 1313, 1332, 1204, 1311, 1329, 1330, 1201, 1315, 1333, 1334,
1205, 1188, 1316, 1335, 1207
233, 1189, 1317, 1336, 1208, 1190, 1318, 1337, 1209, 1320, 1338, 1339, 1210, 1322, 1340, 1341,
1212, 1195, 1323, 1342, 1214
234, 1190, 1318, 1337, 1209, 1196, 1324, 1343, 1215, 1322, 1340, 1341, 1212, 1326, 1344, 1345,
1216, 1199, 1327, 1346, 1218
235, 1196, 1324, 1343, 1215, 1200, 1328, 1347, 1219, 1326, 1344, 1345, 1216, 1330, 1348, 1349,
1220, 1203, 1331, 1350, 1222
236, 1200, 1328, 1347, 1219, 1204, 1332, 1351, 1223, 1330, 1348, 1349, 1220, 1334, 1352, 1353,
1224, 1207, 1335, 1354, 1226
237, 1208, 1336, 1355, 1227, 1209, 1337, 1356, 1228, 1339, 1357, 1358, 1229, 1341, 1359, 1360,
1231, 1214, 1342, 1361, 1233
238, 1209, 1337, 1356, 1228, 1215, 1343, 1362, 1234, 1341, 1359, 1360, 1231, 1345, 1363, 1364,
1235, 1218, 1346, 1365, 1237
239, 1215, 1343, 1362, 1234, 1219, 1347, 1366, 1238, 1345, 1363, 1364, 1235, 1349, 1367, 1368,
1239, 1222, 1350, 1369, 1241
240, 1219, 1347, 1366, 1238, 1223, 1351, 1370, 1242, 1349, 1367, 1368, 1239, 1353, 1371, 1372,
1243, 1226, 1354, 1373, 1245
241, 1246, 1374, 1375, 1247, 1248, 1376, 1377, 1249, 1378, 1379, 1380, 1251, 1381, 1382, 1383,
1254, 1256, 1384, 1385, 1257
242, 1248, 1376, 1377, 1249, 1258, 1386, 1387, 1259, 1381, 1382, 1383, 1254, 1388, 1389, 1390,
1261, 1263, 1391, 1392, 1264
243, 1258, 1386, 1387, 1259, 1265, 1393, 1394, 1266, 1388, 1389, 1390, 1261, 1395, 1396, 1397,
1268, 1270, 1398, 1399, 1271
244, 1265, 1393, 1394, 1266, 1272, 1400, 1401, 1273, 1395, 1396, 1397, 1268, 1402, 1403, 1404,
1275, 1277, 1405, 1406, 1278
245, 1247, 1375, 1407, 1279, 1249, 1377, 1408, 1280, 1380, 1409, 1410, 1281, 1383, 1411, 1412,
1283, 1257, 1385, 1413, 1285
246, 1249, 1377, 1408, 1280, 1259, 1387, 1414, 1286, 1383, 1411, 1412, 1283, 1390, 1415, 1416,
1287, 1264, 1392, 1417, 1289
247, 1259, 1387, 1414, 1286, 1266, 1394, 1418, 1290, 1390, 1415, 1416, 1287, 1397, 1419, 1420,
1291, 1271, 1399, 1421, 1293
248, 1266, 1394, 1418, 1290, 1273, 1401, 1422, 1294, 1397, 1419, 1420, 1291, 1404, 1423, 1424,
1295, 1278, 1406, 1425, 1297
249, 1279, 1407, 1426, 1298, 1280, 1408, 1427, 1299, 1410, 1428, 1429, 1300, 1412, 1430, 1431,
1302, 1285, 1413, 1432, 1304
250, 1280, 1408, 1427, 1299, 1286, 1414, 1433, 1305, 1412, 1430, 1431, 1302, 1416, 1434, 1435,
1306, 1289, 1417, 1436, 1308
251, 1286, 1414, 1433, 1305, 1290, 1418, 1437, 1309, 1416, 1434, 1435, 1306, 1420, 1438, 1439,
1310, 1293, 1421, 1440, 1312
252, 1290, 1418, 1437, 1309, 1294, 1422, 1441, 1313, 1420, 1438, 1439, 1310, 1424, 1442, 1443,
1314, 1297, 1425, 1444, 1316
253, 1298, 1426, 1445, 1317, 1299, 1427, 1446, 1318, 1429, 1447, 1448, 1319, 1431, 1449, 1450,
1321, 1304, 1432, 1451, 1323
254, 1299, 1427, 1446, 1318, 1305, 1433, 1452, 1324, 1431, 1449, 1450, 1321, 1435, 1453, 1454,
1325, 1308, 1436, 1455, 1327
255, 1305, 1433, 1452, 1324, 1309, 1437, 1456, 1328, 1435, 1453, 1454, 1325, 1439, 1457, 1458,
1329, 1312, 1440, 1459, 1331
256, 1309, 1437, 1456, 1328, 1313, 1441, 1460, 1332, 1439, 1457, 1458, 1329, 1443, 1461, 1462,
1333, 1316, 1444, 1463, 1335
257, 1317, 1445, 1464, 1336, 1318, 1446, 1465, 1337, 1448, 1466, 1467, 1338, 1450, 1468, 1469,
1340, 1323, 1451, 1470, 1342
258, 1318, 1446, 1465, 1337, 1324, 1452, 1471, 1343, 1450, 1468, 1469, 1340, 1454, 1472, 1473,
1344, 1327, 1455, 1474, 1346
259, 1324, 1452, 1471, 1343, 1328, 1456, 1475, 1347, 1454, 1472, 1473, 1344, 1458, 1476, 1477,
1348, 1331, 1459, 1478, 1350
260, 1328, 1456, 1475, 1347, 1332, 1460, 1479, 1351, 1458, 1476, 1477, 1348, 1462, 1480, 1481,
1352, 1335, 1463, 1482, 1354
261, 1336, 1464, 1483, 1355, 1337, 1465, 1484, 1356, 1467, 1485, 1486, 1357, 1469, 1487, 1488,
1359, 1342, 1470, 1489, 1361
262, 1337, 1465, 1484, 1356, 1343, 1471, 1490, 1362, 1469, 1487, 1488, 1359, 1473, 1491, 1492,
1363, 1346, 1474, 1493, 1365
263, 1343, 1471, 1490, 1362, 1347, 1475, 1494, 1366, 1473, 1491, 1492, 1363, 1477, 1495, 1496,
1367, 1350, 1478, 1497, 1369
264, 1347, 1475, 1494, 1366, 1351, 1479, 1498, 1370, 1477, 1495, 1496, 1367, 1481, 1499, 1500,
1371, 1354, 1482, 1501, 1373
265, 1374, 1502, 1503, 1375, 1376, 1504, 1505, 1377, 1506, 1507, 1508, 1379, 1509, 1510, 1511,
1382, 1384, 1512, 1513, 1385
266, 1376, 1504, 1505, 1377, 1386, 1514, 1515, 1387, 1509, 1510, 1511, 1382, 1516, 1517, 1518,
1389, 1391, 1519, 1520, 1392
267, 1386, 1514, 1515, 1387, 1393, 1521, 1522, 1394, 1516, 1517, 1518, 1389, 1523, 1524, 1525,
1396, 1398, 1526, 1527, 1399
268, 1393, 1521, 1522, 1394, 1400, 1528, 1529, 1401, 1523, 1524, 1525, 1396, 1530, 1531, 1532,
1403, 1405, 1533, 1534, 1406
269, 1375, 1503, 1535, 1407, 1377, 1505, 1536, 1408, 1508, 1537, 1538, 1409, 1511, 1539, 1540,
1411, 1385, 1513, 1541, 1413
270, 1377, 1505, 1536, 1408, 1387, 1515, 1542, 1414, 1511, 1539, 1540, 1411, 1518, 1543, 1544,
1415, 1392, 1520, 1545, 1417
271, 1387, 1515, 1542, 1414, 1394, 1522, 1546, 1418, 1518, 1543, 1544, 1415, 1525, 1547, 1548,
1419, 1399, 1527, 1549, 1421
272, 1394, 1522, 1546, 1418, 1401, 1529, 1550, 1422, 1525, 1547, 1548, 1419, 1532, 1551, 1552,
1423, 1406, 1534, 1553, 1425
273, 1407, 1535, 1554, 1426, 1408, 1536, 1555, 1427, 1538, 1556, 1557, 1428, 1540, 1558, 1559,
1430, 1413, 1541, 1560, 1432
274, 1408, 1536, 1555, 1427, 1414, 1542, 1561, 1433, 1540, 1558, 1559, 1430, 1544, 1562, 1563,
1434, 1417, 1545, 1564, 1436
275, 1414, 1542, 1561, 1433, 1418, 1546, 1565, 1437, 1544, 1562, 1563, 1434, 1548, 1566, 1567,
1438, 1421, 1549, 1568, 1440
276, 1418, 1546, 1565, 1437, 1422, 1550, 1569, 1441, 1548, 1566, 1567, 1438, 1552, 1570, 1571,
1442, 1425, 1553, 1572, 1444
277, 1426, 1554, 1573, 1445, 1427, 1555, 1574, 1446, 1557, 1575, 1576, 1447, 1559, 1577, 1578,
1449, 1432, 1560, 1579, 1451
278, 1427, 1555, 1574, 1446, 1433, 1561, 1580, 1452, 1559, 1577, 1578, 1449, 1563, 1581, 1582,
1453, 1436, 1564, 1583, 1455
279, 1433, 1561, 1580, 1452, 1437, 1565, 1584, 1456, 1563, 1581, 1582, 1453, 1567, 1585, 1586,
1457, 1440, 1568, 1587, 1459
280, 1437, 1565, 1584, 1456, 1441, 1569, 1588, 1460, 1567, 1585, 1586, 1457, 1571, 1589, 1590,
1461, 1444, 1572, 1591, 1463
281, 1445, 1573, 1592, 1464, 1446, 1574, 1593, 1465, 1576, 1594, 1595, 1466, 1578, 1596, 1597,
1468, 1451, 1579, 1598, 1470
282, 1446, 1574, 1593, 1465, 1452, 1580, 1599, 1471, 1578, 1596, 1597, 1468, 1582, 1600, 1601,
1472, 1455, 1583, 1602, 1474
283, 1452, 1580, 1599, 1471, 1456, 1584, 1603, 1475, 1582, 1600, 1601, 1472, 1586, 1604, 1605,
1476, 1459, 1587, 1606, 1478
284, 1456, 1584, 1603, 1475, 1460, 1588, 1607, 1479, 1586, 1604, 1605, 1476, 1590, 1608, 1609,
1480, 1463, 1591, 1610, 1482
285, 1464, 1592, 1611, 1483, 1465, 1593, 1612, 1484, 1595, 1613, 1614, 1485, 1597, 1615, 1616,
1487, 1470, 1598, 1617, 1489
286, 1465, 1593, 1612, 1484, 1471, 1599, 1618, 1490, 1597, 1615, 1616, 1487, 1601, 1619, 1620,
1491, 1474, 1602, 1621, 1493
287, 1471, 1599, 1618, 1490, 1475, 1603, 1622, 1494, 1601, 1619, 1620, 1491, 1605, 1623, 1624,
1495, 1478, 1606, 1625, 1497
288, 1475, 1603, 1622, 1494, 1479, 1607, 1626, 1498, 1605, 1623, 1624, 1495, 1609, 1627, 1628,
1499, 1482, 1610, 1629, 1501
289, 1502, 1630, 1631, 1503, 1504, 1632, 1633, 1505, 1634, 1635, 1636, 1507, 1637, 1638, 1639,
1510, 1512, 1640, 1641, 1513
290, 1504, 1632, 1633, 1505, 1514, 1642, 1643, 1515, 1637, 1638, 1639, 1510, 1644, 1645, 1646,
1517, 1519, 1647, 1648, 1520
291, 1514, 1642, 1643, 1515, 1521, 1649, 1650, 1522, 1644, 1645, 1646, 1517, 1651, 1652, 1653,
1524, 1526, 1654, 1655, 1527
292, 1521, 1649, 1650, 1522, 1528, 1656, 1657, 1529, 1651, 1652, 1653, 1524, 1658, 1659, 1660,
1531, 1533, 1661, 1662, 1534
293, 1503, 1631, 1663, 1535, 1505, 1633, 1664, 1536, 1636, 1665, 1666, 1537, 1639, 1667, 1668,
1539, 1513, 1641, 1669, 1541
294, 1505, 1633, 1664, 1536, 1515, 1643, 1670, 1542, 1639, 1667, 1668, 1539, 1646, 1671, 1672,
1543, 1520, 1648, 1673, 1545
295, 1515, 1643, 1670, 1542, 1522, 1650, 1674, 1546, 1646, 1671, 1672, 1543, 1653, 1675, 1676,
1547, 1527, 1655, 1677, 1549
296, 1522, 1650, 1674, 1546, 1529, 1657, 1678, 1550, 1653, 1675, 1676, 1547, 1660, 1679, 1680,
1551, 1534, 1662, 1681, 1553
297, 1535, 1663, 1682, 1554, 1536, 1664, 1683, 1555, 1666, 1684, 1685, 1556, 1668, 1686, 1687,
1558, 1541, 1669, 1688, 1560
298, 1536, 1664, 1683, 1555, 1542, 1670, 1689, 1561, 1668, 1686, 1687, 1558, 1672, 1690, 1691,
1562, 1545, 1673, 1692, 1564
299, 1542, 1670, 1689, 1561, 1546, 1674, 1693, 1565, 1672, 1690, 1691, 1562, 1676, 1694, 1695,
1566, 1549, 1677, 1696, 1568
300, 1546, 1674, 1693, 1565, 1550, 1678, 1697, 1569, 1676, 1694, 1695, 1566, 1680, 1698, 1699,
1570, 1553, 1681, 1700, 1572
301, 1554, 1682, 1701, 1573, 1555, 1683, 1702, 1574, 1685, 1703, 1704, 1575, 1687, 1705, 1706,
1577, 1560, 1688, 1707, 1579
302, 1555, 1683, 1702, 1574, 1561, 1689, 1708, 1580, 1687, 1705, 1706, 1577, 1691, 1709, 1710,
1581, 1564, 1692, 1711, 1583
303, 1561, 1689, 1708, 1580, 1565, 1693, 1712, 1584, 1691, 1709, 1710, 1581, 1695, 1713, 1714,
1585, 1568, 1696, 1715, 1587
304, 1565, 1693, 1712, 1584, 1569, 1697, 1716, 1588, 1695, 1713, 1714, 1585, 1699, 1717, 1718,
1589, 1572, 1700, 1719, 1591
305, 1573, 1701, 1720, 1592, 1574, 1702, 1721, 1593, 1704, 1722, 1723, 1594, 1706, 1724, 1725,
1596, 1579, 1707, 1726, 1598
306, 1574, 1702, 1721, 1593, 1580, 1708, 1727, 1599, 1706, 1724, 1725, 1596, 1710, 1728, 1729,
1600, 1583, 1711, 1730, 1602
307, 1580, 1708, 1727, 1599, 1584, 1712, 1731, 1603, 1710, 1728, 1729, 1600, 1714, 1732, 1733,
1604, 1587, 1715, 1734, 1606
308, 1584, 1712, 1731, 1603, 1588, 1716, 1735, 1607, 1714, 1732, 1733, 1604, 1718, 1736, 1737,
1608, 1591, 1719, 1738, 1610
309, 1592, 1720, 1739, 1611, 1593, 1721, 1740, 1612, 1723, 1741, 1742, 1613, 1725, 1743, 1744,
1615, 1598, 1726, 1745, 1617
310, 1593, 1721, 1740, 1612, 1599, 1727, 1746, 1618, 1725, 1743, 1744, 1615, 1729, 1747, 1748,
1619, 1602, 1730, 1749, 1621
311, 1599, 1727, 1746, 1618, 1603, 1731, 1750, 1622, 1729, 1747, 1748, 1619, 1733, 1751, 1752,
1623, 1606, 1734, 1753, 1625
312, 1603, 1731, 1750, 1622, 1607, 1735, 1754, 1626, 1733, 1751, 1752, 1623, 1737, 1755, 1756,
1627, 1610, 1738, 1757, 1629
313, 1630, 1758, 1759, 1631, 1632, 1760, 1761, 1633, 1762, 1763, 1764, 1635, 1765, 1766, 1767,
1638, 1640, 1768, 1769, 1641
314, 1632, 1760, 1761, 1633, 1642, 1770, 1771, 1643, 1765, 1766, 1767, 1638, 1772, 1773, 1774,
1645, 1647, 1775, 1776, 1648
315, 1642, 1770, 1771, 1643, 1649, 1777, 1778, 1650, 1772, 1773, 1774, 1645, 1779, 1780, 1781,
1652, 1654, 1782, 1783, 1655
316, 1649, 1777, 1778, 1650, 1656, 1784, 1785, 1657, 1779, 1780, 1781, 1652, 1786, 1787, 1788,
1659, 1661, 1789, 1790, 1662
317, 1631, 1759, 1791, 1663, 1633, 1761, 1792, 1664, 1764, 1793, 1794, 1665, 1767, 1795, 1796,
1667, 1641, 1769, 1797, 1669
318, 1633, 1761, 1792, 1664, 1643, 1771, 1798, 1670, 1767, 1795, 1796, 1667, 1774, 1799, 1800,
1671, 1648, 1776, 1801, 1673
319, 1643, 1771, 1798, 1670, 1650, 1778, 1802, 1674, 1774, 1799, 1800, 1671, 1781, 1803, 1804,
1675, 1655, 1783, 1805, 1677
320, 1650, 1778, 1802, 1674, 1657, 1785, 1806, 1678, 1781, 1803, 1804, 1675, 1788, 1807, 1808,
1679, 1662, 1790, 1809, 1681
321, 1663, 1791, 1810, 1682, 1664, 1792, 1811, 1683, 1794, 1812, 1813, 1684, 1796, 1814, 1815,
1686, 1669, 1797, 1816, 1688
322, 1664, 1792, 1811, 1683, 1670, 1798, 1817, 1689, 1796, 1814, 1815, 1686, 1800, 1818, 1819,
1690, 1673, 1801, 1820, 1692
323, 1670, 1798, 1817, 1689, 1674, 1802, 1821, 1693, 1800, 1818, 1819, 1690, 1804, 1822, 1823,
1694, 1677, 1805, 1824, 1696
324, 1674, 1802, 1821, 1693, 1678, 1806, 1825, 1697, 1804, 1822, 1823, 1694, 1808, 1826, 1827,
1698, 1681, 1809, 1828, 1700
325, 1682, 1810, 1829, 1701, 1683, 1811, 1830, 1702, 1813, 1831, 1832, 1703, 1815, 1833, 1834,
1705, 1688, 1816, 1835, 1707
326, 1683, 1811, 1830, 1702, 1689, 1817, 1836, 1708, 1815, 1833, 1834, 1705, 1819, 1837, 1838,
1709, 1692, 1820, 1839, 1711
327, 1689, 1817, 1836, 1708, 1693, 1821, 1840, 1712, 1819, 1837, 1838, 1709, 1823, 1841, 1842,
1713, 1696, 1824, 1843, 1715
328, 1693, 1821, 1840, 1712, 1697, 1825, 1844, 1716, 1823, 1841, 1842, 1713, 1827, 1845, 1846,
1717, 1700, 1828, 1847, 1719
329, 1701, 1829, 1848, 1720, 1702, 1830, 1849, 1721, 1832, 1850, 1851, 1722, 1834, 1852, 1853,
1724, 1707, 1835, 1854, 1726
330, 1702, 1830, 1849, 1721, 1708, 1836, 1855, 1727, 1834, 1852, 1853, 1724, 1838, 1856, 1857,
1728, 1711, 1839, 1858, 1730
331, 1708, 1836, 1855, 1727, 1712, 1840, 1859, 1731, 1838, 1856, 1857, 1728, 1842, 1860, 1861,
1732, 1715, 1843, 1862, 1734
332, 1712, 1840, 1859, 1731, 1716, 1844, 1863, 1735, 1842, 1860, 1861, 1732, 1846, 1864, 1865,
1736, 1719, 1847, 1866, 1738
333, 1720, 1848, 1867, 1739, 1721, 1849, 1868, 1740, 1851, 1869, 1870, 1741, 1853, 1871, 1872,
1743, 1726, 1854, 1873, 1745
334, 1721, 1849, 1868, 1740, 1727, 1855, 1874, 1746, 1853, 1871, 1872, 1743, 1857, 1875, 1876,
1747, 1730, 1858, 1877, 1749
335, 1727, 1855, 1874, 1746, 1731, 1859, 1878, 1750, 1857, 1875, 1876, 1747, 1861, 1879, 1880,
1751, 1734, 1862, 1881, 1753
336, 1731, 1859, 1878, 1750, 1735, 1863, 1882, 1754, 1861, 1879, 1880, 1751, 1865, 1883, 1884,
1755, 1738, 1866, 1885, 1757
337, 1758, 1886, 1887, 1759, 1760, 1888, 1889, 1761, 1890, 1891, 1892, 1763, 1893, 1894, 1895,
1766, 1768, 1896, 1897, 1769
338, 1760, 1888, 1889, 1761, 1770, 1898, 1899, 1771, 1893, 1894, 1895, 1766, 1900, 1901, 1902,
1773, 1775, 1903, 1904, 1776
339, 1770, 1898, 1899, 1771, 1777, 1905, 1906, 1778, 1900, 1901, 1902, 1773, 1907, 1908, 1909,
1780, 1782, 1910, 1911, 1783
340, 1777, 1905, 1906, 1778, 1784, 1912, 1913, 1785, 1907, 1908, 1909, 1780, 1914, 1915, 1916,
1787, 1789, 1917, 1918, 1790
341, 1759, 1887, 1919, 1791, 1761, 1889, 1920, 1792, 1892, 1921, 1922, 1793, 1895, 1923, 1924,
1795, 1769, 1897, 1925, 1797
342, 1761, 1889, 1920, 1792, 1771, 1899, 1926, 1798, 1895, 1923, 1924, 1795, 1902, 1927, 1928,
1799, 1776, 1904, 1929, 1801
343, 1771, 1899, 1926, 1798, 1778, 1906, 1930, 1802, 1902, 1927, 1928, 1799, 1909, 1931, 1932,
1803, 1783, 1911, 1933, 1805
344, 1778, 1906, 1930, 1802, 1785, 1913, 1934, 1806, 1909, 1931, 1932, 1803, 1916, 1935, 1936,
1807, 1790, 1918, 1937, 1809
345, 1791, 1919, 1938, 1810, 1792, 1920, 1939, 1811, 1922, 1940, 1941, 1812, 1924, 1942, 1943,
1814, 1797, 1925, 1944, 1816
346, 1792, 1920, 1939, 1811, 1798, 1926, 1945, 1817, 1924, 1942, 1943, 1814, 1928, 1946, 1947,
1818, 1801, 1929, 1948, 1820
347, 1798, 1926, 1945, 1817, 1802, 1930, 1949, 1821, 1928, 1946, 1947, 1818, 1932, 1950, 1951,
1822, 1805, 1933, 1952, 1824
348, 1802, 1930, 1949, 1821, 1806, 1934, 1953, 1825, 1932, 1950, 1951, 1822, 1936, 1954, 1955,
1826, 1809, 1937, 1956, 1828
349, 1810, 1938, 1957, 1829, 1811, 1939, 1958, 1830, 1941, 1959, 1960, 1831, 1943, 1961, 1962,
1833, 1816, 1944, 1963, 1835
350, 1811, 1939, 1958, 1830, 1817, 1945, 1964, 1836, 1943, 1961, 1962, 1833, 1947, 1965, 1966,
1837, 1820, 1948, 1967, 1839
351, 1817, 1945, 1964, 1836, 1821, 1949, 1968, 1840, 1947, 1965, 1966, 1837, 1951, 1969, 1970,
1841, 1824, 1952, 1971, 1843
352, 1821, 1949, 1968, 1840, 1825, 1953, 1972, 1844, 1951, 1969, 1970, 1841, 1955, 1973, 1974,
1845, 1828, 1956, 1975, 1847
353, 1829, 1957, 1976, 1848, 1830, 1958, 1977, 1849, 1960, 1978, 1979, 1850, 1962, 1980, 1981,
1852, 1835, 1963, 1982, 1854
354, 1830, 1958, 1977, 1849, 1836, 1964, 1983, 1855, 1962, 1980, 1981, 1852, 1966, 1984, 1985,
1856, 1839, 1967, 1986, 1858
355, 1836, 1964, 1983, 1855, 1840, 1968, 1987, 1859, 1966, 1984, 1985, 1856, 1970, 1988, 1989,
1860, 1843, 1971, 1990, 1862
356, 1840, 1968, 1987, 1859, 1844, 1972, 1991, 1863, 1970, 1988, 1989, 1860, 1974, 1992, 1993,
1864, 1847, 1975, 1994, 1866
357, 1848, 1976, 1995, 1867, 1849, 1977, 1996, 1868, 1979, 1997, 1998, 1869, 1981, 1999, 2000,
1871, 1854, 1982, 2001, 1873
358, 1849, 1977, 1996, 1868, 1855, 1983, 2002, 1874, 1981, 1999, 2000, 1871, 1985, 2003, 2004,
1875, 1858, 1986, 2005, 1877
359, 1855, 1983, 2002, 1874, 1859, 1987, 2006, 1878, 1985, 2003, 2004, 1875, 1989, 2007, 2008,
1879, 1862, 1990, 2009, 1881
360, 1859, 1987, 2006, 1878, 1863, 1991, 2010, 1882, 1989, 2007, 2008, 1879, 1993, 2011, 2012,
1883, 1866, 1994, 2013, 1885
361, 1886, 2014, 2015, 1887, 1888, 2016, 2017, 1889, 2018, 2019, 2020, 1891, 2021, 2022, 2023,
1894, 1896, 2024, 2025, 1897
362, 1888, 2016, 2017, 1889, 1898, 2026, 2027, 1899, 2021, 2022, 2023, 1894, 2028, 2029, 2030,
1901, 1903, 2031, 2032, 1904
363, 1898, 2026, 2027, 1899, 1905, 2033, 2034, 1906, 2028, 2029, 2030, 1901, 2035, 2036, 2037,
1908, 1910, 2038, 2039, 1911
364, 1905, 2033, 2034, 1906, 1912, 2040, 2041, 1913, 2035, 2036, 2037, 1908, 2042, 2043, 2044,
1915, 1917, 2045, 2046, 1918
365, 1887, 2015, 2047, 1919, 1889, 2017, 2048, 1920, 2020, 2049, 2050, 1921, 2023, 2051, 2052,
1923, 1897, 2025, 2053, 1925
366, 1889, 2017, 2048, 1920, 1899, 2027, 2054, 1926, 2023, 2051, 2052, 1923, 2030, 2055, 2056,
1927, 1904, 2032, 2057, 1929
367, 1899, 2027, 2054, 1926, 1906, 2034, 2058, 1930, 2030, 2055, 2056, 1927, 2037, 2059, 2060,
1931, 1911, 2039, 2061, 1933
368, 1906, 2034, 2058, 1930, 1913, 2041, 2062, 1934, 2037, 2059, 2060, 1931, 2044, 2063, 2064,
1935, 1918, 2046, 2065, 1937
369, 1919, 2047, 2066, 1938, 1920, 2048, 2067, 1939, 2050, 2068, 2069, 1940, 2052, 2070, 2071,
1942, 1925, 2053, 2072, 1944
370, 1920, 2048, 2067, 1939, 1926, 2054, 2073, 1945, 2052, 2070, 2071, 1942, 2056, 2074, 2075,
1946, 1929, 2057, 2076, 1948
371, 1926, 2054, 2073, 1945, 1930, 2058, 2077, 1949, 2056, 2074, 2075, 1946, 2060, 2078, 2079,
1950, 1933, 2061, 2080, 1952
372, 1930, 2058, 2077, 1949, 1934, 2062, 2081, 1953, 2060, 2078, 2079, 1950, 2064, 2082, 2083,
1954, 1937, 2065, 2084, 1956
373, 1938, 2066, 2085, 1957, 1939, 2067, 2086, 1958, 2069, 2087, 2088, 1959, 2071, 2089, 2090,
1961, 1944, 2072, 2091, 1963
374, 1939, 2067, 2086, 1958, 1945, 2073, 2092, 1964, 2071, 2089, 2090, 1961, 2075, 2093, 2094,
1965, 1948, 2076, 2095, 1967
375, 1945, 2073, 2092, 1964, 1949, 2077, 2096, 1968, 2075, 2093, 2094, 1965, 2079, 2097, 2098,
1969, 1952, 2080, 2099, 1971
376, 1949, 2077, 2096, 1968, 1953, 2081, 2100, 1972, 2079, 2097, 2098, 1969, 2083, 2101, 2102,
1973, 1956, 2084, 2103, 1975
377, 1957, 2085, 2104, 1976, 1958, 2086, 2105, 1977, 2088, 2106, 2107, 1978, 2090, 2108, 2109,
1980, 1963, 2091, 2110, 1982
378, 1958, 2086, 2105, 1977, 1964, 2092, 2111, 1983, 2090, 2108, 2109, 1980, 2094, 2112, 2113,
1984, 1967, 2095, 2114, 1986
379, 1964, 2092, 2111, 1983, 1968, 2096, 2115, 1987, 2094, 2112, 2113, 1984, 2098, 2116, 2117,
1988, 1971, 2099, 2118, 1990
380, 1968, 2096, 2115, 1987, 1972, 2100, 2119, 1991, 2098, 2116, 2117, 1988, 2102, 2120, 2121,
1992, 1975, 2103, 2122, 1994
381, 1976, 2104, 2123, 1995, 1977, 2105, 2124, 1996, 2107, 2125, 2126, 1997, 2109, 2127, 2128,
1999, 1982, 2110, 2129, 2001
382, 1977, 2105, 2124, 1996, 1983, 2111, 2130, 2002, 2109, 2127, 2128, 1999, 2113, 2131, 2132,
2003, 1986, 2114, 2133, 2005
383, 1983, 2111, 2130, 2002, 1987, 2115, 2134, 2006, 2113, 2131, 2132, 2003, 2117, 2135, 2136,
2007, 1990, 2118, 2137, 2009
384, 1987, 2115, 2134, 2006, 1991, 2119, 2138, 2010, 2117, 2135, 2136, 2007, 2121, 2139, 2140,
2011, 1994, 2122, 2141, 2013
385, 2014, 2142, 2143, 2015, 2016, 2144, 2145, 2017, 2146, 2147, 2148, 2019, 2149, 2150, 2151,
2022, 2024, 2152, 2153, 2025
386, 2016, 2144, 2145, 2017, 2026, 2154, 2155, 2027, 2149, 2150, 2151, 2022, 2156, 2157, 2158,
2029, 2031, 2159, 2160, 2032
387, 2026, 2154, 2155, 2027, 2033, 2161, 2162, 2034, 2156, 2157, 2158, 2029, 2163, 2164, 2165,
2036, 2038, 2166, 2167, 2039
388, 2033, 2161, 2162, 2034, 2040, 2168, 2169, 2041, 2163, 2164, 2165, 2036, 2170, 2171, 2172,
2043, 2045, 2173, 2174, 2046
389, 2015, 2143, 2175, 2047, 2017, 2145, 2176, 2048, 2148, 2177, 2178, 2049, 2151, 2179, 2180,
2051, 2025, 2153, 2181, 2053
390, 2017, 2145, 2176, 2048, 2027, 2155, 2182, 2054, 2151, 2179, 2180, 2051, 2158, 2183, 2184,
2055, 2032, 2160, 2185, 2057
391, 2027, 2155, 2182, 2054, 2034, 2162, 2186, 2058, 2158, 2183, 2184, 2055, 2165, 2187, 2188,
2059, 2039, 2167, 2189, 2061
392, 2034, 2162, 2186, 2058, 2041, 2169, 2190, 2062, 2165, 2187, 2188, 2059, 2172, 2191, 2192,
2063, 2046, 2174, 2193, 2065
393, 2047, 2175, 2194, 2066, 2048, 2176, 2195, 2067, 2178, 2196, 2197, 2068, 2180, 2198, 2199,
2070, 2053, 2181, 2200, 2072
394, 2048, 2176, 2195, 2067, 2054, 2182, 2201, 2073, 2180, 2198, 2199, 2070, 2184, 2202, 2203,
2074, 2057, 2185, 2204, 2076
395, 2054, 2182, 2201, 2073, 2058, 2186, 2205, 2077, 2184, 2202, 2203, 2074, 2188, 2206, 2207,
2078, 2061, 2189, 2208, 2080
396, 2058, 2186, 2205, 2077, 2062, 2190, 2209, 2081, 2188, 2206, 2207, 2078, 2192, 2210, 2211,
2082, 2065, 2193, 2212, 2084
397, 2066, 2194, 2213, 2085, 2067, 2195, 2214, 2086, 2197, 2215, 2216, 2087, 2199, 2217, 2218,
2089, 2072, 2200, 2219, 2091
398, 2067, 2195, 2214, 2086, 2073, 2201, 2220, 2092, 2199, 2217, 2218, 2089, 2203, 2221, 2222,
2093, 2076, 2204, 2223, 2095
399, 2073, 2201, 2220, 2092, 2077, 2205, 2224, 2096, 2203, 2221, 2222, 2093, 2207, 2225, 2226,
2097, 2080, 2208, 2227, 2099
400, 2077, 2205, 2224, 2096, 2081, 2209, 2228, 2100, 2207, 2225, 2226, 2097, 2211, 2229, 2230,
2101, 2084, 2212, 2231, 2103
401, 2085, 2213, 2232, 2104, 2086, 2214, 2233, 2105, 2216, 2234, 2235, 2106, 2218, 2236, 2237,
2108, 2091, 2219, 2238, 2110
402, 2086, 2214, 2233, 2105, 2092, 2220, 2239, 2111, 2218, 2236, 2237, 2108, 2222, 2240, 2241,
2112, 2095, 2223, 2242, 2114
403, 2092, 2220, 2239, 2111, 2096, 2224, 2243, 2115, 2222, 2240, 2241, 2112, 2226, 2244, 2245,
2116, 2099, 2227, 2246, 2118
404, 2096, 2224, 2243, 2115, 2100, 2228, 2247, 2119, 2226, 2244, 2245, 2116, 2230, 2248, 2249,
2120, 2103, 2231, 2250, 2122
405, 2104, 2232, 2251, 2123, 2105, 2233, 2252, 2124, 2235, 2253, 2254, 2125, 2237, 2255, 2256,
2127, 2110, 2238, 2257, 2129
406, 2105, 2233, 2252, 2124, 2111, 2239, 2258, 2130, 2237, 2255, 2256, 2127, 2241, 2259, 2260,
2131, 2114, 2242, 2261, 2133
407, 2111, 2239, 2258, 2130, 2115, 2243, 2262, 2134, 2241, 2259, 2260, 2131, 2245, 2263, 2264,
2135, 2118, 2246, 2265, 2137
408, 2115, 2243, 2262, 2134, 2119, 2247, 2266, 2138, 2245, 2263, 2264, 2135, 2249, 2267, 2268,
2139, 2122, 2250, 2269, 2141
409, 2142, 2270, 2271, 2143, 2144, 2272, 2273, 2145, 2274, 2275, 2276, 2147, 2277, 2278, 2279,
2150, 2152, 2280, 2281, 2153
410, 2144, 2272, 2273, 2145, 2154, 2282, 2283, 2155, 2277, 2278, 2279, 2150, 2284, 2285, 2286,
2157, 2159, 2287, 2288, 2160
411, 2154, 2282, 2283, 2155, 2161, 2289, 2290, 2162, 2284, 2285, 2286, 2157, 2291, 2292, 2293,
2164, 2166, 2294, 2295, 2167
412, 2161, 2289, 2290, 2162, 2168, 2296, 2297, 2169, 2291, 2292, 2293, 2164, 2298, 2299, 2300,
2171, 2173, 2301, 2302, 2174
413, 2143, 2271, 2303, 2175, 2145, 2273, 2304, 2176, 2276, 2305, 2306, 2177, 2279, 2307, 2308,
2179, 2153, 2281, 2309, 2181
414, 2145, 2273, 2304, 2176, 2155, 2283, 2310, 2182, 2279, 2307, 2308, 2179, 2286, 2311, 2312,
2183, 2160, 2288, 2313, 2185
415, 2155, 2283, 2310, 2182, 2162, 2290, 2314, 2186, 2286, 2311, 2312, 2183, 2293, 2315, 2316,
2187, 2167, 2295, 2317, 2189
416, 2162, 2290, 2314, 2186, 2169, 2297, 2318, 2190, 2293, 2315, 2316, 2187, 2300, 2319, 2320,
2191, 2174, 2302, 2321, 2193
417, 2175, 2303, 2322, 2194, 2176, 2304, 2323, 2195, 2306, 2324, 2325, 2196, 2308, 2326, 2327,
2198, 2181, 2309, 2328, 2200
418, 2176, 2304, 2323, 2195, 2182, 2310, 2329, 2201, 2308, 2326, 2327, 2198, 2312, 2330, 2331,
2202, 2185, 2313, 2332, 2204
419, 2182, 2310, 2329, 2201, 2186, 2314, 2333, 2205, 2312, 2330, 2331, 2202, 2316, 2334, 2335,
2206, 2189, 2317, 2336, 2208
420, 2186, 2314, 2333, 2205, 2190, 2318, 2337, 2209, 2316, 2334, 2335, 2206, 2320, 2338, 2339,
2210, 2193, 2321, 2340, 2212
421, 2194, 2322, 2341, 2213, 2195, 2323, 2342, 2214, 2325, 2343, 2344, 2215, 2327, 2345, 2346,
2217, 2200, 2328, 2347, 2219
422, 2195, 2323, 2342, 2214, 2201, 2329, 2348, 2220, 2327, 2345, 2346, 2217, 2331, 2349, 2350,
2221, 2204, 2332, 2351, 2223
423, 2201, 2329, 2348, 2220, 2205, 2333, 2352, 2224, 2331, 2349, 2350, 2221, 2335, 2353, 2354,
2225, 2208, 2336, 2355, 2227
424, 2205, 2333, 2352, 2224, 2209, 2337, 2356, 2228, 2335, 2353, 2354, 2225, 2339, 2357, 2358,
2229, 2212, 2340, 2359, 2231
425, 2213, 2341, 2360, 2232, 2214, 2342, 2361, 2233, 2344, 2362, 2363, 2234, 2346, 2364, 2365,
2236, 2219, 2347, 2366, 2238
426, 2214, 2342, 2361, 2233, 2220, 2348, 2367, 2239, 2346, 2364, 2365, 2236, 2350, 2368, 2369,
2240, 2223, 2351, 2370, 2242
427, 2220, 2348, 2367, 2239, 2224, 2352, 2371, 2243, 2350, 2368, 2369, 2240, 2354, 2372, 2373,
2244, 2227, 2355, 2374, 2246
428, 2224, 2352, 2371, 2243, 2228, 2356, 2375, 2247, 2354, 2372, 2373, 2244, 2358, 2376, 2377,
2248, 2231, 2359, 2378, 2250
429, 2232, 2360, 2379, 2251, 2233, 2361, 2380, 2252, 2363, 2381, 2382, 2253, 2365, 2383, 2384,
2255, 2238, 2366, 2385, 2257
430, 2233, 2361, 2380, 2252, 2239, 2367, 2386, 2258, 2365, 2383, 2384, 2255, 2369, 2387, 2388,
2259, 2242, 2370, 2389, 2261
431, 2239, 2367, 2386, 2258, 2243, 2371, 2390, 2262, 2369, 2387, 2388, 2259, 2373, 2391, 2392,
2263, 2246, 2374, 2393, 2265
432, 2243, 2371, 2390, 2262, 2247, 2375, 2394, 2266, 2373, 2391, 2392, 2263, 2377, 2395, 2396,
2267, 2250, 2378, 2397, 2269
433, 2270, 2398, 2399, 2271, 2272, 2400, 2401, 2273, 2402, 2403, 2404, 2275, 2405, 2406, 2407,
2278, 2280, 2408, 2409, 2281
434, 2272, 2400, 2401, 2273, 2282, 2410, 2411, 2283, 2405, 2406, 2407, 2278, 2412, 2413, 2414,
2285, 2287, 2415, 2416, 2288
435, 2282, 2410, 2411, 2283, 2289, 2417, 2418, 2290, 2412, 2413, 2414, 2285, 2419, 2420, 2421,
2292, 2294, 2422, 2423, 2295
436, 2289, 2417, 2418, 2290, 2296, 2424, 2425, 2297, 2419, 2420, 2421, 2292, 2426, 2427, 2428,
2299, 2301, 2429, 2430, 2302
437, 2271, 2399, 2431, 2303, 2273, 2401, 2432, 2304, 2404, 2433, 2434, 2305, 2407, 2435, 2436,
2307, 2281, 2409, 2437, 2309
438, 2273, 2401, 2432, 2304, 2283, 2411, 2438, 2310, 2407, 2435, 2436, 2307, 2414, 2439, 2440,
2311, 2288, 2416, 2441, 2313
439, 2283, 2411, 2438, 2310, 2290, 2418, 2442, 2314, 2414, 2439, 2440, 2311, 2421, 2443, 2444,
2315, 2295, 2423, 2445, 2317
440, 2290, 2418, 2442, 2314, 2297, 2425, 2446, 2318, 2421, 2443, 2444, 2315, 2428, 2447, 2448,
2319, 2302, 2430, 2449, 2321
441, 2303, 2431, 2450, 2322, 2304, 2432, 2451, 2323, 2434, 2452, 2453, 2324, 2436, 2454, 2455,
2326, 2309, 2437, 2456, 2328
442, 2304, 2432, 2451, 2323, 2310, 2438, 2457, 2329, 2436, 2454, 2455, 2326, 2440, 2458, 2459,
2330, 2313, 2441, 2460, 2332
443, 2310, 2438, 2457, 2329, 2314, 2442, 2461, 2333, 2440, 2458, 2459, 2330, 2444, 2462, 2463,
2334, 2317, 2445, 2464, 2336
444, 2314, 2442, 2461, 2333, 2318, 2446, 2465, 2337, 2444, 2462, 2463, 2334, 2448, 2466, 2467,
2338, 2321, 2449, 2468, 2340
445, 2322, 2450, 2469, 2341, 2323, 2451, 2470, 2342, 2453, 2471, 2472, 2343, 2455, 2473, 2474,
2345, 2328, 2456, 2475, 2347
446, 2323, 2451, 2470, 2342, 2329, 2457, 2476, 2348, 2455, 2473, 2474, 2345, 2459, 2477, 2478,
2349, 2332, 2460, 2479, 2351
447, 2329, 2457, 2476, 2348, 2333, 2461, 2480, 2352, 2459, 2477, 2478, 2349, 2463, 2481, 2482,
2353, 2336, 2464, 2483, 2355
448, 2333, 2461, 2480, 2352, 2337, 2465, 2484, 2356, 2463, 2481, 2482, 2353, 2467, 2485, 2486,
2357, 2340, 2468, 2487, 2359
449, 2341, 2469, 2488, 2360, 2342, 2470, 2489, 2361, 2472, 2490, 2491, 2362, 2474, 2492, 2493,
2364, 2347, 2475, 2494, 2366
450, 2342, 2470, 2489, 2361, 2348, 2476, 2495, 2367, 2474, 2492, 2493, 2364, 2478, 2496, 2497,
2368, 2351, 2479, 2498, 2370
451, 2348, 2476, 2495, 2367, 2352, 2480, 2499, 2371, 2478, 2496, 2497, 2368, 2482, 2500, 2501,
2372, 2355, 2483, 2502, 2374
452, 2352, 2480, 2499, 2371, 2356, 2484, 2503, 2375, 2482, 2500, 2501, 2372, 2486, 2504, 2505,
2376, 2359, 2487, 2506, 2378
453, 2360, 2488, 2507, 2379, 2361, 2489, 2508, 2380, 2491, 2509, 2510, 2381, 2493, 2511, 2512,
2383, 2366, 2494, 2513, 2385
454, 2361, 2489, 2508, 2380, 2367, 2495, 2514, 2386, 2493, 2511, 2512, 2383, 2497, 2515, 2516,
2387, 2370, 2498, 2517, 2389
455, 2367, 2495, 2514, 2386, 2371, 2499, 2518, 2390, 2497, 2515, 2516, 2387, 2501, 2519, 2520,
2391, 2374, 2502, 2521, 2393
456, 2371, 2499, 2518, 2390, 2375, 2503, 2522, 2394, 2501, 2519, 2520, 2391, 2505, 2523, 2524,
2395, 2378, 2506, 2525, 2397
457, 2398, 2526, 2527, 2399, 2400, 2528, 2529, 2401, 2530, 2531, 2532, 2403, 2533, 2534, 2535,
2406, 2408, 2536, 2537, 2409
458, 2400, 2528, 2529, 2401, 2410, 2538, 2539, 2411, 2533, 2534, 2535, 2406, 2540, 2541, 2542,
2413, 2415, 2543, 2544, 2416
459, 2410, 2538, 2539, 2411, 2417, 2545, 2546, 2418, 2540, 2541, 2542, 2413, 2547, 2548, 2549,
2420, 2422, 2550, 2551, 2423
460, 2417, 2545, 2546, 2418, 2424, 2552, 2553, 2425, 2547, 2548, 2549, 2420, 2554, 2555, 2556,
2427, 2429, 2557, 2558, 2430
461, 2399, 2527, 2559, 2431, 2401, 2529, 2560, 2432, 2532, 2561, 2562, 2433, 2535, 2563, 2564,
2435, 2409, 2537, 2565, 2437
462, 2401, 2529, 2560, 2432, 2411, 2539, 2566, 2438, 2535, 2563, 2564, 2435, 2542, 2567, 2568,
2439, 2416, 2544, 2569, 2441
463, 2411, 2539, 2566, 2438, 2418, 2546, 2570, 2442, 2542, 2567, 2568, 2439, 2549, 2571, 2572,
2443, 2423, 2551, 2573, 2445
464, 2418, 2546, 2570, 2442, 2425, 2553, 2574, 2446, 2549, 2571, 2572, 2443, 2556, 2575, 2576,
2447, 2430, 2558, 2577, 2449
465, 2431, 2559, 2578, 2450, 2432, 2560, 2579, 2451, 2562, 2580, 2581, 2452, 2564, 2582, 2583,
2454, 2437, 2565, 2584, 2456
466, 2432, 2560, 2579, 2451, 2438, 2566, 2585, 2457, 2564, 2582, 2583, 2454, 2568, 2586, 2587,
2458, 2441, 2569, 2588, 2460
467, 2438, 2566, 2585, 2457, 2442, 2570, 2589, 2461, 2568, 2586, 2587, 2458, 2572, 2590, 2591,
2462, 2445, 2573, 2592, 2464
468, 2442, 2570, 2589, 2461, 2446, 2574, 2593, 2465, 2572, 2590, 2591, 2462, 2576, 2594, 2595,
2466, 2449, 2577, 2596, 2468
469, 2450, 2578, 2597, 2469, 2451, 2579, 2598, 2470, 2581, 2599, 2600, 2471, 2583, 2601, 2602,
2473, 2456, 2584, 2603, 2475
470, 2451, 2579, 2598, 2470, 2457, 2585, 2604, 2476, 2583, 2601, 2602, 2473, 2587, 2605, 2606,
2477, 2460, 2588, 2607, 2479
471, 2457, 2585, 2604, 2476, 2461, 2589, 2608, 2480, 2587, 2605, 2606, 2477, 2591, 2609, 2610,
2481, 2464, 2592, 2611, 2483
472, 2461, 2589, 2608, 2480, 2465, 2593, 2612, 2484, 2591, 2609, 2610, 2481, 2595, 2613, 2614,
2485, 2468, 2596, 2615, 2487
473, 2469, 2597, 2616, 2488, 2470, 2598, 2617, 2489, 2600, 2618, 2619, 2490, 2602, 2620, 2621,
2492, 2475, 2603, 2622, 2494
474, 2470, 2598, 2617, 2489, 2476, 2604, 2623, 2495, 2602, 2620, 2621, 2492, 2606, 2624, 2625,
2496, 2479, 2607, 2626, 2498
475, 2476, 2604, 2623, 2495, 2480, 2608, 2627, 2499, 2606, 2624, 2625, 2496, 2610, 2628, 2629,
2500, 2483, 2611, 2630, 2502
476, 2480, 2608, 2627, 2499, 2484, 2612, 2631, 2503, 2610, 2628, 2629, 2500, 2614, 2632, 2633,
2504, 2487, 2615, 2634, 2506
477, 2488, 2616, 2635, 2507, 2489, 2617, 2636, 2508, 2619, 2637, 2638, 2509, 2621, 2639, 2640,
2511, 2494, 2622, 2641, 2513
478, 2489, 2617, 2636, 2508, 2495, 2623, 2642, 2514, 2621, 2639, 2640, 2511, 2625, 2643, 2644,
2515, 2498, 2626, 2645, 2517
479, 2495, 2623, 2642, 2514, 2499, 2627, 2646, 2518, 2625, 2643, 2644, 2515, 2629, 2647, 2648,
2519, 2502, 2630, 2649, 2521
480, 2499, 2627, 2646, 2518, 2503, 2631, 2650, 2522, 2629, 2647, 2648, 2519, 2633, 2651, 2652,
2523, 2506, 2634, 2653, 2525
481, 2526, 2654, 2655, 2527, 2528, 2656, 2657, 2529, 2658, 2659, 2660, 2531, 2661, 2662, 2663,
2534, 2536, 2664, 2665, 2537
482, 2528, 2656, 2657, 2529, 2538, 2666, 2667, 2539, 2661, 2662, 2663, 2534, 2668, 2669, 2670,
2541, 2543, 2671, 2672, 2544
483, 2538, 2666, 2667, 2539, 2545, 2673, 2674, 2546, 2668, 2669, 2670, 2541, 2675, 2676, 2677,
2548, 2550, 2678, 2679, 2551
484, 2545, 2673, 2674, 2546, 2552, 2680, 2681, 2553, 2675, 2676, 2677, 2548, 2682, 2683, 2684,
2555, 2557, 2685, 2686, 2558
485, 2527, 2655, 2687, 2559, 2529, 2657, 2688, 2560, 2660, 2689, 2690, 2561, 2663, 2691, 2692,
2563, 2537, 2665, 2693, 2565
486, 2529, 2657, 2688, 2560, 2539, 2667, 2694, 2566, 2663, 2691, 2692, 2563, 2670, 2695, 2696,
2567, 2544, 2672, 2697, 2569
487, 2539, 2667, 2694, 2566, 2546, 2674, 2698, 2570, 2670, 2695, 2696, 2567, 2677, 2699, 2700,
2571, 2551, 2679, 2701, 2573
488, 2546, 2674, 2698, 2570, 2553, 2681, 2702, 2574, 2677, 2699, 2700, 2571, 2684, 2703, 2704,
2575, 2558, 2686, 2705, 2577
489, 2559, 2687, 2706, 2578, 2560, 2688, 2707, 2579, 2690, 2708, 2709, 2580, 2692, 2710, 2711,
2582, 2565, 2693, 2712, 2584
490, 2560, 2688, 2707, 2579, 2566, 2694, 2713, 2585, 2692, 2710, 2711, 2582, 2696, 2714, 2715,
2586, 2569, 2697, 2716, 2588
491, 2566, 2694, 2713, 2585, 2570, 2698, 2717, 2589, 2696, 2714, 2715, 2586, 2700, 2718, 2719,
2590, 2573, 2701, 2720, 2592
492, 2570, 2698, 2717, 2589, 2574, 2702, 2721, 2593, 2700, 2718, 2719, 2590, 2704, 2722, 2723,
2594, 2577, 2705, 2724, 2596
493, 2578, 2706, 2725, 2597, 2579, 2707, 2726, 2598, 2709, 2727, 2728, 2599, 2711, 2729, 2730,
2601, 2584, 2712, 2731, 2603
494, 2579, 2707, 2726, 2598, 2585, 2713, 2732, 2604, 2711, 2729, 2730, 2601, 2715, 2733, 2734,
2605, 2588, 2716, 2735, 2607
495, 2585, 2713, 2732, 2604, 2589, 2717, 2736, 2608, 2715, 2733, 2734, 2605, 2719, 2737, 2738,
2609, 2592, 2720, 2739, 2611
496, 2589, 2717, 2736, 2608, 2593, 2721, 2740, 2612, 2719, 2737, 2738, 2609, 2723, 2741, 2742,
2613, 2596, 2724, 2743, 2615
497, 2597, 2725, 2744, 2616, 2598, 2726, 2745, 2617, 2728, 2746, 2747, 2618, 2730, 2748, 2749,
2620, 2603, 2731, 2750, 2622
498, 2598, 2726, 2745, 2617, 2604, 2732, 2751, 2623, 2730, 2748, 2749, 2620, 2734, 2752, 2753,
2624, 2607, 2735, 2754, 2626
499, 2604, 2732, 2751, 2623, 2608, 2736, 2755, 2627, 2734, 2752, 2753, 2624, 2738, 2756, 2757,
2628, 2611, 2739, 2758, 2630
500, 2608, 2736, 2755, 2627, 2612, 2740, 2759, 2631, 2738, 2756, 2757, 2628, 2742, 2760, 2761,
2632, 2615, 2743, 2762, 2634
501, 2616, 2744, 2763, 2635, 2617, 2745, 2764, 2636, 2747, 2765, 2766, 2637, 2749, 2767, 2768,
2639, 2622, 2750, 2769, 2641
502, 2617, 2745, 2764, 2636, 2623, 2751, 2770, 2642, 2749, 2767, 2768, 2639, 2753, 2771, 2772,
2643, 2626, 2754, 2773, 2645
503, 2623, 2751, 2770, 2642, 2627, 2755, 2774, 2646, 2753, 2771, 2772, 2643, 2757, 2775, 2776,
2647, 2630, 2758, 2777, 2649
504, 2627, 2755, 2774, 2646, 2631, 2759, 2778, 2650, 2757, 2775, 2776, 2647, 2761, 2779, 2780,
2651, 2634, 2762, 2781, 2653
505, 2654, 2782, 2783, 2655, 2656, 2784, 2785, 2657, 2786, 2787, 2788, 2659, 2789, 2790, 2791,
2662, 2664, 2792, 2793, 2665
506, 2656, 2784, 2785, 2657, 2666, 2794, 2795, 2667, 2789, 2790, 2791, 2662, 2796, 2797, 2798,
2669, 2671, 2799, 2800, 2672
507, 2666, 2794, 2795, 2667, 2673, 2801, 2802, 2674, 2796, 2797, 2798, 2669, 2803, 2804, 2805,
2676, 2678, 2806, 2807, 2679
508, 2673, 2801, 2802, 2674, 2680, 2808, 2809, 2681, 2803, 2804, 2805, 2676, 2810, 2811, 2812,
2683, 2685, 2813, 2814, 2686
509, 2655, 2783, 2815, 2687, 2657, 2785, 2816, 2688, 2788, 2817, 2818, 2689, 2791, 2819, 2820,
2691, 2665, 2793, 2821, 2693
510, 2657, 2785, 2816, 2688, 2667, 2795, 2822, 2694, 2791, 2819, 2820, 2691, 2798, 2823, 2824,
2695, 2672, 2800, 2825, 2697
511, 2667, 2795, 2822, 2694, 2674, 2802, 2826, 2698, 2798, 2823, 2824, 2695, 2805, 2827, 2828,
2699, 2679, 2807, 2829, 2701
512, 2674, 2802, 2826, 2698, 2681, 2809, 2830, 2702, 2805, 2827, 2828, 2699, 2812, 2831, 2832,
2703, 2686, 2814, 2833, 2705
513, 2687, 2815, 2834, 2706, 2688, 2816, 2835, 2707, 2818, 2836, 2837, 2708, 2820, 2838, 2839,
2710, 2693, 2821, 2840, 2712
514, 2688, 2816, 2835, 2707, 2694, 2822, 2841, 2713, 2820, 2838, 2839, 2710, 2824, 2842, 2843,
2714, 2697, 2825, 2844, 2716
515, 2694, 2822, 2841, 2713, 2698, 2826, 2845, 2717, 2824, 2842, 2843, 2714, 2828, 2846, 2847,
2718, 2701, 2829, 2848, 2720
516, 2698, 2826, 2845, 2717, 2702, 2830, 2849, 2721, 2828, 2846, 2847, 2718, 2832, 2850, 2851,
2722, 2705, 2833, 2852, 2724
517, 2706, 2834, 2853, 2725, 2707, 2835, 2854, 2726, 2837, 2855, 2856, 2727, 2839, 2857, 2858,
2729, 2712, 2840, 2859, 2731
518, 2707, 2835, 2854, 2726, 2713, 2841, 2860, 2732, 2839, 2857, 2858, 2729, 2843, 2861, 2862,
2733, 2716, 2844, 2863, 2735
519, 2713, 2841, 2860, 2732, 2717, 2845, 2864, 2736, 2843, 2861, 2862, 2733, 2847, 2865, 2866,
2737, 2720, 2848, 2867, 2739
520, 2717, 2845, 2864, 2736, 2721, 2849, 2868, 2740, 2847, 2865, 2866, 2737, 2851, 2869, 2870,
2741, 2724, 2852, 2871, 2743
521, 2725, 2853, 2872, 2744, 2726, 2854, 2873, 2745, 2856, 2874, 2875, 2746, 2858, 2876, 2877,
2748, 2731, 2859, 2878, 2750
522, 2726, 2854, 2873, 2745, 2732, 2860, 2879, 2751, 2858, 2876, 2877, 2748, 2862, 2880, 2881,
2752, 2735, 2863, 2882, 2754
523, 2732, 2860, 2879, 2751, 2736, 2864, 2883, 2755, 2862, 2880, 2881, 2752, 2866, 2884, 2885,
2756, 2739, 2867, 2886, 2758
524, 2736, 2864, 2883, 2755, 2740, 2868, 2887, 2759, 2866, 2884, 2885, 2756, 2870, 2888, 2889,
2760, 2743, 2871, 2890, 2762
525, 2744, 2872, 2891, 2763, 2745, 2873, 2892, 2764, 2875, 2893, 2894, 2765, 2877, 2895, 2896,
2767, 2750, 2878, 2897, 2769
526, 2745, 2873, 2892, 2764, 2751, 2879, 2898, 2770, 2877, 2895, 2896, 2767, 2881, 2899, 2900,
2771, 2754, 2882, 2901, 2773
527, 2751, 2879, 2898, 2770, 2755, 2883, 2902, 2774, 2881, 2899, 2900, 2771, 2885, 2903, 2904,
2775, 2758, 2886, 2905, 2777
528, 2755, 2883, 2902, 2774, 2759, 2887, 2906, 2778, 2885, 2903, 2904, 2775, 2889, 2907, 2908,
2779, 2762, 2890, 2909, 2781
529, 2782, 2910, 2911, 2783, 2784, 2912, 2913, 2785, 2914, 2915, 2916, 2787, 2917, 2918, 2919,
2790, 2792, 2920, 2921, 2793
530, 2784, 2912, 2913, 2785, 2794, 2922, 2923, 2795, 2917, 2918, 2919, 2790, 2924, 2925, 2926,
2797, 2799, 2927, 2928, 2800
531, 2794, 2922, 2923, 2795, 2801, 2929, 2930, 2802, 2924, 2925, 2926, 2797, 2931, 2932, 2933,
2804, 2806, 2934, 2935, 2807
532, 2801, 2929, 2930, 2802, 2808, 2936, 2937, 2809, 2931, 2932, 2933, 2804, 2938, 2939, 2940,
2811, 2813, 2941, 2942, 2814
533, 2783, 2911, 2943, 2815, 2785, 2913, 2944, 2816, 2916, 2945, 2946, 2817, 2919, 2947, 2948,
2819, 2793, 2921, 2949, 2821
534, 2785, 2913, 2944, 2816, 2795, 2923, 2950, 2822, 2919, 2947, 2948, 2819, 2926, 2951, 2952,
2823, 2800, 2928, 2953, 2825
535, 2795, 2923, 2950, 2822, 2802, 2930, 2954, 2826, 2926, 2951, 2952, 2823, 2933, 2955, 2956,
2827, 2807, 2935, 2957, 2829
536, 2802, 2930, 2954, 2826, 2809, 2937, 2958, 2830, 2933, 2955, 2956, 2827, 2940, 2959, 2960,
2831, 2814, 2942, 2961, 2833
537, 2815, 2943, 2962, 2834, 2816, 2944, 2963, 2835, 2946, 2964, 2965, 2836, 2948, 2966, 2967,
2838, 2821, 2949, 2968, 2840
538, 2816, 2944, 2963, 2835, 2822, 2950, 2969, 2841, 2948, 2966, 2967, 2838, 2952, 2970, 2971,
2842, 2825, 2953, 2972, 2844
539, 2822, 2950, 2969, 2841, 2826, 2954, 2973, 2845, 2952, 2970, 2971, 2842, 2956, 2974, 2975,
2846, 2829, 2957, 2976, 2848
540, 2826, 2954, 2973, 2845, 2830, 2958, 2977, 2849, 2956, 2974, 2975, 2846, 2960, 2978, 2979,
2850, 2833, 2961, 2980, 2852
541, 2834, 2962, 2981, 2853, 2835, 2963, 2982, 2854, 2965, 2983, 2984, 2855, 2967, 2985, 2986,
2857, 2840, 2968, 2987, 2859
542, 2835, 2963, 2982, 2854, 2841, 2969, 2988, 2860, 2967, 2985, 2986, 2857, 2971, 2989, 2990,
2861, 2844, 2972, 2991, 2863
543, 2841, 2969, 2988, 2860, 2845, 2973, 2992, 2864, 2971, 2989, 2990, 2861, 2975, 2993, 2994,
2865, 2848, 2976, 2995, 2867
544, 2845, 2973, 2992, 2864, 2849, 2977, 2996, 2868, 2975, 2993, 2994, 2865, 2979, 2997, 2998,
2869, 2852, 2980, 2999, 2871
545, 2853, 2981, 3000, 2872, 2854, 2982, 3001, 2873, 2984, 3002, 3003, 2874, 2986, 3004, 3005,
2876, 2859, 2987, 3006, 2878
546, 2854, 2982, 3001, 2873, 2860, 2988, 3007, 2879, 2986, 3004, 3005, 2876, 2990, 3008, 3009,
2880, 2863, 2991, 3010, 2882
547, 2860, 2988, 3007, 2879, 2864, 2992, 3011, 2883, 2990, 3008, 3009, 2880, 2994, 3012, 3013,
2884, 2867, 2995, 3014, 2886
548, 2864, 2992, 3011, 2883, 2868, 2996, 3015, 2887, 2994, 3012, 3013, 2884, 2998, 3016, 3017,
2888, 2871, 2999, 3018, 2890
549, 2872, 3000, 3019, 2891, 2873, 3001, 3020, 2892, 3003, 3021, 3022, 2893, 3005, 3023, 3024,
2895, 2878, 3006, 3025, 2897
550, 2873, 3001, 3020, 2892, 2879, 3007, 3026, 2898, 3005, 3023, 3024, 2895, 3009, 3027, 3028,
2899, 2882, 3010, 3029, 2901
551, 2879, 3007, 3026, 2898, 2883, 3011, 3030, 2902, 3009, 3027, 3028, 2899, 3013, 3031, 3032,
2903, 2886, 3014, 3033, 2905
552, 2883, 3011, 3030, 2902, 2887, 3015, 3034, 2906, 3013, 3031, 3032, 2903, 3017, 3035, 3036,
2907, 2890, 3018, 3037, 2909
553, 2910, 3038, 3039, 2911, 2912, 3040, 3041, 2913, 3042, 3043, 3044, 2915, 3045, 3046, 3047,
2918, 2920, 3048, 3049, 2921
554, 2912, 3040, 3041, 2913, 2922, 3050, 3051, 2923, 3045, 3046, 3047, 2918, 3052, 3053, 3054,
2925, 2927, 3055, 3056, 2928
555, 2922, 3050, 3051, 2923, 2929, 3057, 3058, 2930, 3052, 3053, 3054, 2925, 3059, 3060, 3061,
2932, 2934, 3062, 3063, 2935
556, 2929, 3057, 3058, 2930, 2936, 3064, 3065, 2937, 3059, 3060, 3061, 2932, 3066, 3067, 3068,
2939, 2941, 3069, 3070, 2942
557, 2911, 3039, 3071, 2943, 2913, 3041, 3072, 2944, 3044, 3073, 3074, 2945, 3047, 3075, 3076,
2947, 2921, 3049, 3077, 2949
558, 2913, 3041, 3072, 2944, 2923, 3051, 3078, 2950, 3047, 3075, 3076, 2947, 3054, 3079, 3080,
2951, 2928, 3056, 3081, 2953
559, 2923, 3051, 3078, 2950, 2930, 3058, 3082, 2954, 3054, 3079, 3080, 2951, 3061, 3083, 3084,
2955, 2935, 3063, 3085, 2957
560, 2930, 3058, 3082, 2954, 2937, 3065, 3086, 2958, 3061, 3083, 3084, 2955, 3068, 3087, 3088,
2959, 2942, 3070, 3089, 2961
561, 2943, 3071, 3090, 2962, 2944, 3072, 3091, 2963, 3074, 3092, 3093, 2964, 3076, 3094, 3095,
2966, 2949, 3077, 3096, 2968
562, 2944, 3072, 3091, 2963, 2950, 3078, 3097, 2969, 3076, 3094, 3095, 2966, 3080, 3098, 3099,
2970, 2953, 3081, 3100, 2972
563, 2950, 3078, 3097, 2969, 2954, 3082, 3101, 2973, 3080, 3098, 3099, 2970, 3084, 3102, 3103,
2974, 2957, 3085, 3104, 2976
564, 2954, 3082, 3101, 2973, 2958, 3086, 3105, 2977, 3084, 3102, 3103, 2974, 3088, 3106, 3107,
2978, 2961, 3089, 3108, 2980
565, 2962, 3090, 3109, 2981, 2963, 3091, 3110, 2982, 3093, 3111, 3112, 2983, 3095, 3113, 3114,
2985, 2968, 3096, 3115, 2987
566, 2963, 3091, 3110, 2982, 2969, 3097, 3116, 2988, 3095, 3113, 3114, 2985, 3099, 3117, 3118,
2989, 2972, 3100, 3119, 2991
567, 2969, 3097, 3116, 2988, 2973, 3101, 3120, 2992, 3099, 3117, 3118, 2989, 3103, 3121, 3122,
2993, 2976, 3104, 3123, 2995
568, 2973, 3101, 3120, 2992, 2977, 3105, 3124, 2996, 3103, 3121, 3122, 2993, 3107, 3125, 3126,
2997, 2980, 3108, 3127, 2999
569, 2981, 3109, 3128, 3000, 2982, 3110, 3129, 3001, 3112, 3130, 3131, 3002, 3114, 3132, 3133,
3004, 2987, 3115, 3134, 3006
570, 2982, 3110, 3129, 3001, 2988, 3116, 3135, 3007, 3114, 3132, 3133, 3004, 3118, 3136, 3137,
3008, 2991, 3119, 3138, 3010
571, 2988, 3116, 3135, 3007, 2992, 3120, 3139, 3011, 3118, 3136, 3137, 3008, 3122, 3140, 3141,
3012, 2995, 3123, 3142, 3014
572, 2992, 3120, 3139, 3011, 2996, 3124, 3143, 3015, 3122, 3140, 3141, 3012, 3126, 3144, 3145,
3016, 2999, 3127, 3146, 3018
573, 3000, 3128, 3147, 3019, 3001, 3129, 3148, 3020, 3131, 3149, 3150, 3021, 3133, 3151, 3152,
3023, 3006, 3134, 3153, 3025
574, 3001, 3129, 3148, 3020, 3007, 3135, 3154, 3026, 3133, 3151, 3152, 3023, 3137, 3155, 3156,
3027, 3010, 3138, 3157, 3029
575, 3007, 3135, 3154, 3026, 3011, 3139, 3158, 3030, 3137, 3155, 3156, 3027, 3141, 3159, 3160,
3031, 3014, 3142, 3161, 3033
576, 3011, 3139, 3158, 3030, 3015, 3143, 3162, 3034, 3141, 3159, 3160, 3031, 3145, 3163, 3164,
3035, 3018, 3146, 3165, 3037
*NSET, NSET=NROOT
1, 4, 5, 8, 12, 16, 17, 20, 21, 24, 28, 29, 32, 33, 36, 40,
41, 44, 45, 48, 52, 53, 56, 58, 60, 63, 66, 68, 70, 73, 75, 77,
80, 82, 84, 87, 89, 91, 93, 96, 99, 101, 103, 106, 108, 110, 113, 115,
117, 120, 122, 124, 126, 129, 132, 134, 136, 139, 141, 143, 146, 148, 150, 153,
155, 157, 159, 162, 165, 167, 169, 172, 174, 176, 179, 181, 183, 186, 188, 190,
192, 195, 198, 200, 202, 205, 207, 209, 212, 214, 216, 219, 221
*NSET, NSET=NREF
3166
*SURFACE, NAME=SEND, TYPE=ELEMENT
553, S4
554, S4
555, S4
556, S4
557, S4
558, S4
559, S4
560, S4
561, S4
562, S4
563, S4
564, S4
565, S4
566, S4
567, S4
568, S4
569, S4
570, S4
571, S4
572, S4
573, S4
574, S4
575, S4
576, S4
*SURFACE, NAME=STOP, TYPE=ELEMENT
21, S5
22, S5
23, S5
24, S5
45, S5
46, S5
47, S5
48, S5
69, S5
70, S5
71, S5
72, S5
93, S5
94, S5
95, S5
96, S5
117, S5
118, S5
119, S5
120, S5
141, S5
142, S5
143, S5
144, S5
165, S5
166, S5
167, S5
168, S5
189, S5
190, S5
191, S5
192, S5
213, S5
214, S5
215, S5
216, S5
237, S5
238, S5
239, S5
240, S5
261, S5
262, S5
263, S5
264, S5
285, S5
286, S5
287, S5
288, S5
309, S5
310, S5
311, S5
312, S5
333, S5
334, S5
335, S5
336, S5
357, S5
358, S5
359, S5
360, S5
381, S5
382, S5
383, S5
384, S5
405, S5
406, S5
407, S5
408, S5
429, S5
430, S5
431, S5
432, S5
453, S5
454, S5
455, S5
456, S5
477, S5
478, S5
479, S5
480, S5
501, S5
502, S5
503, S5
504, S5
525, S5
526, S5
527, S5
528, S5
549, S5
550, S5
551, S5
552, S5
573, S5
574, S5
575, S5
576, S5
*MATERIAL, NAME=STEEL
*ELASTIC
210000., 0.3
*SOLID SECTION, ELSET=EALL, MATERIAL=STEEL
*COUPLING, REF NODE=3166, SURFACE=SEND, CONSTRAINT NAME=TIP
*DISTRIBUTING
1, 6
*BOUNDARY
NROOT, 1, 3
*STEP
*STATIC
*CLOAD
3166, 2, -10000.
*NODE FILE
U, RF
*EL FILE
S, E
*END STEP
*STEP
*STATIC
*CLOAD, OP=NEW
3166, 4, 2000000.
*NODE FILE
U, RF
*EL FILE
S, E
*END STEP
*STEP
*STATIC
*CLOAD, OP=NEW
3166, 1, 100000.
3166, 2, -10000.
3166, 4, 2000000.
*NODE FILE
U, RF
*EL FILE
S, E
*END STEP
*STEP
*STATIC
*CLOAD, OP=NEW
*DLOAD
STOP, P, 1.
*NODE FILE
U, RF
*EL FILE
S, E
*END STEP
