*HEADING
ccxview sample: a rocker pressed onto a plate, surface to surface contact
*NODE, NSET=NALL
1, -30, -20, -12
2, -25, -20, -12
3, -20, -20, -12
4, -15, -20, -12
5, -10, -20, -12
6, -5, -20, -12
7, 0, -20, -12
8, 5, -20, -12
9, 10, -20, -12
10, 15, -20, -12
11, 20, -20, -12
12, 25, -20, -12
13, 30, -20, -12
14, -30, -15, -12
15, -25, -15, -12
16, -20, -15, -12
17, -15, -15, -12
18, -10, -15, -12
19, -5, -15, -12
20, 0, -15, -12
21, 5, -15, -12
22, 10, -15, -12
23, 15, -15, -12
24, 20, -15, -12
25, 25, -15, -12
26, 30, -15, -12
27, -30, -10, -12
28, -25, -10, -12
29, -20, -10, -12
30, -15, -10, -12
31, -10, -10, -12
32, -5, -10, -12
33, 0, -10, -12
34, 5, -10, -12
35, 10, -10, -12
36, 15, -10, -12
37, 20, -10, -12
38, 25, -10, -12
39, 30, -10, -12
40, -30, -5, -12
41, -25, -5, -12
42, -20, -5, -12
43, -15, -5, -12
44, -10, -5, -12
45, -5, -5, -12
46, 0, -5, -12
47, 5, -5, -12
48, 10, -5, -12
49, 15, -5, -12
50, 20, -5, -12
51, 25, -5, -12
52, 30, -5, -12
53, -30, 0, -12
54, -25, 0, -12
55, -20, 0, -12
56, -15, 0, -12
57, -10, 0, -12
58, -5, 0, -12
59, 0, 0, -12
60, 5, 0, -12
61, 10, 0, -12
62, 15, 0, -12
63, 20, 0, -12
64, 25, 0, -12
65, 30, 0, -12
66, -30, 5, -12
67, -25, 5, -12
68, -20, 5, -12
69, -15, 5, -12
70, -10, 5, -12
71, -5, 5, -12
72, 0, 5, -12
73, 5, 5, -12
74, 10, 5, -12
75, 15, 5, -12
76, 20, 5, -12
77, 25, 5, -12
78, 30, 5, -12
79, -30, 10, -12
80, -25, 10, -12
81, -20, 10, -12
82, -15, 10, -12
83, -10, 10, -12
84, -5, 10, -12
85, 0, 10, -12
86, 5, 10, -12
87, 10, 10, -12
88, 15, 10, -12
89, 20, 10, -12
90, 25, 10, -12
91, 30, 10, -12
92, -30, 15, -12
93, -25, 15, -12
94, -20, 15, -12
95, -15, 15, -12
96, -10, 15, -12
97, -5, 15, -12
98, 0, 15, -12
99, 5, 15, -12
100, 10, 15, -12
101, 15, 15, -12
102, 20, 15, -12
103, 25, 15, -12
104, 30, 15, -12
105, -30, 20, -12
106, -25, 20, -12
107, -20, 20, -12
108, -15, 20, -12
109, -10, 20, -12
110, -5, 20, -12
111, 0, 20, -12
112, 5, 20, -12
113, 10, 20, -12
114, 15, 20, -12
115, 20, 20, -12
116, 25, 20, -12
117, 30, 20, -12
118, -30, -20, -6
119, -25, -20, -6
120, -20, -20, -6
121, -15, -20, -6
122, -10, -20, -6
123, -5, -20, -6
124, 0, -20, -6
125, 5, -20, -6
126, 10, -20, -6
127, 15, -20, -6
128, 20, -20, -6
129, 25, -20, -6
130, 30, -20, -6
131, -30, -15, -6
132, -25, -15, -6
133, -20, -15, -6
134, -15, -15, -6
135, -10, -15, -6
136, -5, -15, -6
137, 0, -15, -6
138, 5, -15, -6
139, 10, -15, -6
140, 15, -15, -6
141, 20, -15, -6
142, 25, -15, -6
143, 30, -15, -6
144, -30, -10, -6
145, -25, -10, -6
146, -20, -10, -6
147, -15, -10, -6
148, -10, -10, -6
149, -5, -10, -6
150, 0, -10, -6
151, 5, -10, -6
152, 10, -10, -6
153, 15, -10, -6
154, 20, -10, -6
155, 25, -10, -6
156, 30, -10, -6
157, -30, -5, -6
158, -25, -5, -6
159, -20, -5, -6
160, -15, -5, -6
161, -10, -5, -6
162, -5, -5, -6
163, 0, -5, -6
164, 5, -5, -6
165, 10, -5, -6
166, 15, -5, -6
167, 20, -5, -6
168, 25, -5, -6
169, 30, -5, -6
170, -30, 0, -6
171, -25, 0, -6
172, -20, 0, -6
173, -15, 0, -6
174, -10, 0, -6
175, -5, 0, -6
176, 0, 0, -6
177, 5, 0, -6
178, 10, 0, -6
179, 15, 0, -6
180, 20, 0, -6
181, 25, 0, -6
182, 30, 0, -6
183, -30, 5, -6
184, -25, 5, -6
185, -20, 5, -6
186, -15, 5, -6
187, -10, 5, -6
188, -5, 5, -6
189, 0, 5, -6
190, 5, 5, -6
191, 10, 5, -6
192, 15, 5, -6
193, 20, 5, -6
194, 25, 5, -6
195, 30, 5, -6
196, -30, 10, -6
197, -25, 10, -6
198, -20, 10, -6
199, -15, 10, -6
200, -10, 10, -6
201, -5, 10, -6
202, 0, 10, -6
203, 5, 10, -6
204, 10, 10, -6
205, 15, 10, -6
206, 20, 10, -6
207, 25, 10, -6
208, 30, 10, -6
209, -30, 15, -6
210, -25, 15, -6
211, -20, 15, -6
212, -15, 15, -6
213, -10, 15, -6
214, -5, 15, -6
215, 0, 15, -6
216, 5, 15, -6
217, 10, 15, -6
218, 15, 15, -6
219, 20, 15, -6
220, 25, 15, -6
221, 30, 15, -6
222, -30, 20, -6
223, -25, 20, -6
224, -20, 20, -6
225, -15, 20, -6
226, -10, 20, -6
227, -5, 20, -6
228, 0, 20, -6
229, 5, 20, -6
230, 10, 20, -6
231, 15, 20, -6
232, 20, 20, -6
233, 25, 20, -6
234, 30, 20, -6
235, -30, -20, 0
236, -25, -20, 0
237, -20, -20, 0
238, -15, -20, 0
239, -10, -20, 0
240, -5, -20, 0
241, 0, -20, 0
242, 5, -20, 0
243, 10, -20, 0
244, 15, -20, 0
245, 20, -20, 0
246, 25, -20, 0
247, 30, -20, 0
248, -30, -15, 0
249, -25, -15, 0
250, -20, -15, 0
251, -15, -15, 0
252, -10, -15, 0
253, -5, -15, 0
254, 0, -15, 0
255, 5, -15, 0
256, 10, -15, 0
257, 15, -15, 0
258, 20, -15, 0
259, 25, -15, 0
260, 30, -15, 0
261, -30, -10, 0
262, -25, -10, 0
263, -20, -10, 0
264, -15, -10, 0
265, -10, -10, 0
266, -5, -10, 0
267, 0, -10, 0
268, 5, -10, 0
269, 10, -10, 0
270, 15, -10, 0
271, 20, -10, 0
272, 25, -10, 0
273, 30, -10, 0
274, -30, -5, 0
275, -25, -5, 0
276, -20, -5, 0
277, -15, -5, 0
278, -10, -5, 0
279, -5, -5, 0
280, 0, -5, 0
281, 5, -5, 0
282, 10, -5, 0
283, 15, -5, 0
284, 20, -5, 0
285, 25, -5, 0
286, 30, -5, 0
287, -30, 0, 0
288, -25, 0, 0
289, -20, 0, 0
290, -15, 0, 0
291, -10, 0, 0
292, -5, 0, 0
293, 0, 0, 0
294, 5, 0, 0
295, 10, 0, 0
296, 15, 0, 0
297, 20, 0, 0
298, 25, 0, 0
299, 30, 0, 0
300, -30, 5, 0
301, -25, 5, 0
302, -20, 5, 0
303, -15, 5, 0
304, -10, 5, 0
305, -5, 5, 0
306, 0, 5, 0
307, 5, 5, 0
308, 10, 5, 0
309, 15, 5, 0
310, 20, 5, 0
311, 25, 5, 0
312, 30, 5, 0
313, -30, 10, 0
314, -25, 10, 0
315, -20, 10, 0
316, -15, 10, 0
317, -10, 10, 0
318, -5, 10, 0
319, 0, 10, 0
320, 5, 10, 0
321, 10, 10, 0
322, 15, 10, 0
323, 20, 10, 0
324, 25, 10, 0
325, 30, 10, 0
326, -30, 15, 0
327, -25, 15, 0
328, -20, 15, 0
329, -15, 15, 0
330, -10, 15, 0
331, -5, 15, 0
332, 0, 15, 0
333, 5, 15, 0
334, 10, 15, 0
335, 15, 15, 0
336, 20, 15, 0
337, 25, 15, 0
338, 30, 15, 0
339, -30, 20, 0
340, -25, 20, 0
341, -20, 20, 0
342, -15, 20, 0
343, -10, 20, 0
344, -5, 20, 0
345, 0, 20, 0
346, 5, 20, 0
347, 10, 20, 0
348, 15, 20, 0
349, 20, 20, 0
350, 25, 20, 0
351, 30, 20, 0
352, -15, -6, 0.1125
353, -12, -6, 0.072
354, -9, -6, 0.0405
355, -6, -6, 0.018
356, -3, -6, 0.0045
357, 0, -6, 0
358, 3, -6, 0.0045
359, 6, -6, 0.018
360, 9, -6, 0.0405
361, 12, -6, 0.072
362, 15, -6, 0.1125
363, -15, -2, 0.1125
364, -12, -2, 0.072
365, -9, -2, 0.0405
366, -6, -2, 0.018
367, -3, -2, 0.0045
368, 0, -2, 0
369, 3, -2, 0.0045
370, 6, -2, 0.018
371, 9, -2, 0.0405
372, 12, -2, 0.072
373, 15, -2, 0.1125
374, -15, 2, 0.1125
375, -12, 2, 0.072
376, -9, 2, 0.0405
377, -6, 2, 0.018
378, -3, 2, 0.0045
379, 0, 2, 0
380, 3, 2, 0.0045
381, 6, 2, 0.018
382, 9, 2, 0.0405
383, 12, 2, 0.072
384, 15, 2, 0.1125
385, -15, 6, 0.1125
386, -12, 6, 0.072
387, -9, 6, 0.0405
388, -6, 6, 0.018
389, -3, 6, 0.0045
390, 0, 6, 0
391, 3, 6, 0.0045
392, 6, 6, 0.018
393, 9, 6, 0.0405
394, 12, 6, 0.072
395, 15, 6, 0.1125
396, -15, -6, 5.075
397, -12, -6, 5.048
398, -9, -6, 5.027
399, -6, -6, 5.012
400, -3, -6, 5.003
401, 0, -6, 5
402, 3, -6, 5.003
403, 6, -6, 5.012
404, 9, -6, 5.027
405, 12, -6, 5.048
406, 15, -6, 5.075
407, -15, -2, 5.075
408, -12, -2, 5.048
409, -9, -2, 5.027
410, -6, -2, 5.012
411, -3, -2, 5.003
412, 0, -2, 5
413, 3, -2, 5.003
414, 6, -2, 5.012
415, 9, -2, 5.027
416, 12, -2, 5.048
417, 15, -2, 5.075
418, -15, 2, 5.075
419, -12, 2, 5.048
420, -9, 2, 5.027
421, -6, 2, 5.012
422, -3, 2, 5.003
423, 0, 2, 5
424, 3, 2, 5.003
425, 6, 2, 5.012
426, 9, 2, 5.027
427, 12, 2, 5.048
428, 15, 2, 5.075
429, -15, 6, 5.075
430, -12, 6, 5.048
431, -9, 6, 5.027
432, -6, 6, 5.012
433, -3, 6, 5.003
434, 0, 6, 5
435, 3, 6, 5.003
436, 6, 6, 5.012
437, 9, 6, 5.027
438, 12, 6, 5.048
439, 15, 6, 5.075
440, -15, -6, 10.0375
441, -12, -6, 10.024
442, -9, -6, 10.0135
443, -6, -6, 10.006
444, -3, -6, 10.0015
445, 0, -6, 10
446, 3, -6, 10.0015
447, 6, -6, 10.006
448, 9, -6, 10.0135
449, 12, -6, 10.024
450, 15, -6, 10.0375
451, -15, -2, 10.0375
452, -12, -2, 10.024
453, -9, -2, 10.0135
454, -6, -2, 10.006
455, -3, -2, 10.0015
456, 0, -2, 10
457, 3, -2, 10.0015
458, 6, -2, 10.006
459, 9, -2, 10.0135
460, 12, -2, 10.024
461, 15, -2, 10.0375
462, -15, 2, 10.0375
463, -12, 2, 10.024
464, -9, 2, 10.0135
465, -6, 2, 10.006
466, -3, 2, 10.0015
467, 0, 2, 10
468, 3, 2, 10.0015
469, 6, 2, 10.006
470, 9, 2, 10.0135
471, 12, 2, 10.024
472, 15, 2, 10.0375
473, -15, 6, 10.0375
474, -12, 6, 10.024
475, -9, 6, 10.0135
476, -6, 6, 10.006
477, -3, 6, 10.0015
478, 0, 6, 10
479, 3, 6, 10.0015
480, 6, 6, 10.006
481, 9, 6, 10.0135
482, 12, 6, 10.024
483, 15, 6, 10.0375
484, -15, -6, 15
485, -12, -6, 15
486, -9, -6, 15
487, -6, -6, 15
488, -3, -6, 15
489, 0, -6, 15
490, 3, -6, 15
491, 6, -6, 15
492, 9, -6, 15
493, 12, -6, 15
494, 15, -6, 15
495, -15, -2, 15
496, -12, -2, 15
497, -9, -2, 15
498, -6, -2, 15
499, -3, -2, 15
500, 0, -2, 15
501, 3, -2, 15
502, 6, -2, 15
503, 9, -2, 15
504, 12, -2, 15
505, 15, -2, 15
506, -15, 2, 15
507, -12, 2, 15
508, -9, 2, 15
509, -6, 2, 15
510, -3, 2, 15
511, 0, 2, 15
512, 3, 2, 15
513, 6, 2, 15
514, 9, 2, 15
515, 12, 2, 15
516, 15, 2, 15
517, -15, 6, 15
518, -12, 6, 15
519, -9, 6, 15
520, -6, 6, 15
521, -3, 6, 15
522, 0, 6, 15
523, 3, 6, 15
524, 6, 6, 15
525, 9, 6, 15
526, 12, 6, 15
527, 15, 6, 15
*ELEMENT, TYPE=C3D8I, ELSET=PLATE
1, 1, 2, 15, 14, 118, 119, 132, 131
2, 2, 3, 16, 15, 119, 120, 133, 132
3, 3, 4, 17, 16, 120, 121, 134, 133
4, 4, 5, 18, 17, 121, 122, 135, 134
5, 5, 6, 19, 18, 122, 123, 136, 135
6, 6, 7, 20, 19, 123, 124, 137, 136
7, 7, 8, 21, 20, 124, 125, 138, 137
8, 8, 9, 22, 21, 125, 126, 139, 138
9, 9, 10, 23, 22, 126, 127, 140, 139
10, 10, 11, 24, 23, 127, 128, 141, 140
11, 11, 12, 25, 24, 128, 129, 142, 141
12, 12, 13, 26, 25, 129, 130, 143, 142
13, 14, 15, 28, 27, 131, 132, 145, 144
14, 15, 16, 29, 28, 132, 133, 146, 145
15, 16, 17, 30, 29, 133, 134, 147, 146
16, 17, 18, 31, 30, 134, 135, 148, 147
17, 18, 19, 32, 31, 135, 136, 149, 148
18, 19, 20, 33, 32, 136, 137, 150, 149
19, 20, 21, 34, 33, 137, 138, 151, 150
20, 21, 22, 35, 34, 138, 139, 152, 151
21, 22, 23, 36, 35, 139, 140, 153, 152
22, 23, 24, 37, 36, 140, 141, 154, 153
23, 24, 25, 38, 37, 141, 142, 155, 154
24, 25, 26, 39, 38, 142, 143, 156, 155
25, 27, 28, 41, 40, 144, 145, 158, 157
26, 28, 29, 42, 41, 145, 146, 159, 158
27, 29, 30, 43, 42, 146, 147, 160, 159
28, 30, 31, 44, 43, 147, 148, 161, 160
29, 31, 32, 45, 44, 148, 149, 162, 161
30, 32, 33, 46, 45, 149, 150, 163, 162
31, 33, 34, 47, 46, 150, 151, 164, 163
32, 34, 35, 48, 47, 151, 152, 165, 164
33, 35, 36, 49, 48, 152, 153, 166, 165
34, 36, 37, 50, 49, 153, 154, 167, 166
35, 37, 38, 51, 50, 154, 155, 168, 167
36, 38, 39, 52, 51, 155, 156, 169, 168
37, 40, 41, 54, 53, 157, 158, 171, 170
38, 41, 42, 55, 54, 158, 159, 172, 171
39, 42, 43, 56, 55, 159, 160, 173, 172
40, 43, 44, 57, 56, 160, 161, 174, 173
41, 44, 45, 58, 57, 161, 162, 175, 174
42, 45, 46, 59, 58, 162, 163, 176, 175
43, 46, 47, 60, 59, 163, 164, 177, 176
44, 47, 48, 61, 60, 164, 165, 178, 177
45, 48, 49, 62, 61, 165, 166, 179, 178
46, 49, 50, 63, 62, 166, 167, 180, 179
47, 50, 51, 64, 63, 167, 168, 181, 180
48, 51, 52, 65, 64, 168, 169, 182, 181
49, 53, 54, 67, 66, 170, 171, 184, 183
50, 54, 55, 68, 67, 171, 172, 185, 184
51, 55, 56, 69, 68, 172, 173, 186, 185
52, 56, 57, 70, 69, 173, 174, 187, 186
53, 57, 58, 71, 70, 174, 175, 188, 187
54, 58, 59, 72, 71, 175, 176, 189, 188
55, 59, 60, 73, 72, 176, 177, 190, 189
56, 60, 61, 74, 73, 177, 178, 191, 190
57, 61, 62, 75, 74, 178, 179, 192, 191
58, 62, 63, 76, 75, 179, 180, 193, 192
59, 63, 64, 77, 76, 180, 181, 194, 193
60, 64, 65, 78, 77, 181, 182, 195, 194
61, 66, 67, 80, 79, 183, 184, 197, 196
62, 67, 68, 81, 80, 184, 185, 198, 197
63, 68, 69, 82, 81, 185, 186, 199, 198
64, 69, 70, 83, 82, 186, 187, 200, 199
65, 70, 71, 84, 83, 187, 188, 201, 200
66, 71, 72, 85, 84, 188, 189, 202, 201
67, 72, 73, 86, 85, 189, 190, 203, 202
68, 73, 74, 87, 86, 190, 191, 204, 203
69, 74, 75, 88, 87, 191, 192, 205, 204
70, 75, 76, 89, 88, 192, 193, 206, 205
71, 76, 77, 90, 89, 193, 194, 207, 206
72, 77, 78, 91, 90, 194, 195, 208, 207
73, 79, 80, 93, 92, 196, 197, 210, 209
74, 80, 81, 94, 93, 197, 198, 211, 210
75, 81, 82, 95, 94, 198, 199, 212, 211
76, 82, 83, 96, 95, 199, 200, 213, 212
77, 83, 84, 97, 96, 200, 201, 214, 213
78, 84, 85, 98, 97, 201, 202, 215, 214
79, 85, 86, 99, 98, 202, 203, 216, 215
80, 86, 87, 100, 99, 203, 204, 217, 216
81, 87, 88, 101, 100, 204, 205, 218, 217
82, 88, 89, 102, 101, 205, 206, 219, 218
83, 89, 90, 103, 102, 206, 207, 220, 219
84, 90, 91, 104, 103, 207, 208, 221, 220
85, 92, 93, 106, 105, 209, 210, 223, 222
86, 93, 94, 107, 106, 210, 211, 224, 223
87, 94, 95, 108, 107, 211, 212, 225, 224
88, 95, 96, 109, 108, 212, 213, 226, 225
89, 96, 97, 110, 109, 213, 214, 227, 226
90, 97, 98, 111, 110, 214, 215, 228, 227
91, 98, 99, 112, 111, 215, 216, 229, 228
92, 99, 100, 113, 112, 216, 217, 230, 229
93, 100, 101, 114, 113, 217, 218, 231, 230
94, 101, 102, 115, 114, 218, 219, 232, 231
95, 102, 103, 116, 115, 219, 220, 233, 232
96, 103, 104, 117, 116, 220, 221, 234, 233
97, 118, 119, 132, 131, 235, 236, 249, 248
98, 119, 120, 133, 132, 236, 237, 250, 249
99, 120, 121, 134, 133, 237, 238, 251, 250
100, 121, 122, 135, 134, 238, 239, 252, 251
101, 122, 123, 136, 135, 239, 240, 253, 252
102, 123, 124, 137, 136, 240, 241, 254, 253
103, 124, 125, 138, 137, 241, 242, 255, 254
104, 125, 126, 139, 138, 242, 243, 256, 255
105, 126, 127, 140, 139, 243, 244, 257, 256
106, 127, 128, 141, 140, 244, 245, 258, 257
107, 128, 129, 142, 141, 245, 246, 259, 258
108, 129, 130, 143, 142, 246, 247, 260, 259
109, 131, 132, 145, 144, 248, 249, 262, 261
110, 132, 133, 146, 145, 249, 250, 263, 262
111, 133, 134, 147, 146, 250, 251, 264, 263
112, 134, 135, 148, 147, 251, 252, 265, 264
113, 135, 136, 149, 148, 252, 253, 266, 265
114, 136, 137, 150, 149, 253, 254, 267, 266
115, 137, 138, 151, 150, 254, 255, 268, 267
116, 138, 139, 152, 151, 255, 256, 269, 268
117, 139, 140, 153, 152, 256, 257, 270, 269
118, 140, 141, 154, 153, 257, 258, 271, 270
119, 141, 142, 155, 154, 258, 259, 272, 271
120, 142, 143, 156, 155, 259, 260, 273, 272
121, 144, 145, 158, 157, 261, 262, 275, 274
122, 145, 146, 159, 158, 262, 263, 276, 275
123, 146, 147, 160, 159, 263, 264, 277, 276
124, 147, 148, 161, 160, 264, 265, 278, 277
125, 148, 149, 162, 161, 265, 266, 279, 278
126, 149, 150, 163, 162, 266, 267, 280, 279
127, 150, 151, 164, 163, 267, 268, 281, 280
128, 151, 152, 165, 164, 268, 269, 282, 281
129, 152, 153, 166, 165, 269, 270, 283, 282
130, 153, 154, 167, 166, 270, 271, 284, 283
131, 154, 155, 168, 167, 271, 272, 285, 284
132, 155, 156, 169, 168, 272, 273, 286, 285
133, 157, 158, 171, 170, 274, 275, 288, 287
134, 158, 159, 172, 171, 275, 276, 289, 288
135, 159, 160, 173, 172, 276, 277, 290, 289
136, 160, 161, 174, 173, 277, 278, 291, 290
137, 161, 162, 175, 174, 278, 279, 292, 291
138, 162, 163, 176, 175, 279, 280, 293, 292
139, 163, 164, 177, 176, 280, 281, 294, 293
140, 164, 165, 178, 177, 281, 282, 295, 294
141, 165, 166, 179, 178, 282, 283, 296, 295
142, 166, 167, 180, 179, 283, 284, 297, 296
143, 167, 168, 181, 180, 284, 285, 298, 297
144, 168, 169, 182, 181, 285, 286, 299, 298
145, 170, 171, 184, 183, 287, 288, 301, 300
146, 171, 172, 185, 184, 288, 289, 302, 301
147, 172, 173, 186, 185, 289, 290, 303, 302
148, 173, 174, 187, 186, 290, 291, 304, 303
149, 174, 175, 188, 187, 291, 292, 305, 304
150, 175, 176, 189, 188, 292, 293, 306, 305
151, 176, 177, 190, 189, 293, 294, 307, 306
152, 177, 178, 191, 190, 294, 295, 308, 307
153, 178, 179, 192, 191, 295, 296, 309, 308
154, 179, 180, 193, 192, 296, 297, 310, 309
155, 180, 181, 194, 193, 297, 298, 311, 310
156, 181, 182, 195, 194, 298, 299, 312, 311
157, 183, 184, 197, 196, 300, 301, 314, 313
158, 184, 185, 198, 197, 301, 302, 315, 314
159, 185, 186, 199, 198, 302, 303, 316, 315
160, 186, 187, 200, 199, 303, 304, 317, 316
161, 187, 188, 201, 200, 304, 305, 318, 317
162, 188, 189, 202, 201, 305, 306, 319, 318
163, 189, 190, 203, 202, 306, 307, 320, 319
164, 190, 191, 204, 203, 307, 308, 321, 320
165, 191, 192, 205, 204, 308, 309, 322, 321
166, 192, 193, 206, 205, 309, 310, 323, 322
167, 193, 194, 207, 206, 310, 311, 324, 323
168, 194, 195, 208, 207, 311, 312, 325, 324
169, 196, 197, 210, 209, 313, 314, 327, 326
170, 197, 198, 211, 210, 314, 315, 328, 327
171, 198, 199, 212, 211, 315, 316, 329, 328
172, 199, 200, 213, 212, 316, 317, 330, 329
173, 200, 201, 214, 213, 317, 318, 331, 330
174, 201, 202, 215, 214, 318, 319, 332, 331
175, 202, 203, 216, 215, 319, 320, 333, 332
176, 203, 204, 217, 216, 320, 321, 334, 333
177, 204, 205, 218, 217, 321, 322, 335, 334
178, 205, 206, 219, 218, 322, 323, 336, 335
179, 206, 207, 220, 219, 323, 324, 337, 336
180, 207, 208, 221, 220, 324, 325, 338, 337
181, 209, 210, 223, 222, 326, 327, 340, 339
182, 210, 211, 224, 223, 327, 328, 341, 340
183, 211, 212, 225, 224, 328, 329, 342, 341
184, 212, 213, 226, 225, 329, 330, 343, 342
185, 213, 214, 227, 226, 330, 331, 344, 343
186, 214, 215, 228, 227, 331, 332, 345, 344
187, 215, 216, 229, 228, 332, 333, 346, 345
188, 216, 217, 230, 229, 333, 334, 347, 346
189, 217, 218, 231, 230, 334, 335, 348, 347
190, 218, 219, 232, 231, 335, 336, 349, 348
191, 219, 220, 233, 232, 336, 337, 350, 349
192, 220, 221, 234, 233, 337, 338, 351, 350
*ELEMENT, TYPE=C3D8I, ELSET=ROCKER
193, 352, 353, 364, 363, 396, 397, 408, 407
194, 353, 354, 365, 364, 397, 398, 409, 408
195, 354, 355, 366, 365, 398, 399, 410, 409
196, 355, 356, 367, 366, 399, 400, 411, 410
197, 356, 357, 368, 367, 400, 401, 412, 411
198, 357, 358, 369, 368, 401, 402, 413, 412
199, 358, 359, 370, 369, 402, 403, 414, 413
200, 359, 360, 371, 370, 403, 404, 415, 414
201, 360, 361, 372, 371, 404, 405, 416, 415
202, 361, 362, 373, 372, 405, 406, 417, 416
203, 363, 364, 375, 374, 407, 408, 419, 418
204, 364, 365, 376, 375, 408, 409, 420, 419
205, 365, 366, 377, 376, 409, 410, 421, 420
206, 366, 367, 378, 377, 410, 411, 422, 421
207, 367, 368, 379, 378, 411, 412, 423, 422
208, 368, 369, 380, 379, 412, 413, 424, 423
209, 369, 370, 381, 380, 413, 414, 425, 424
210, 370, 371, 382, 381, 414, 415, 426, 425
211, 371, 372, 383, 382, 415, 416, 427, 426
212, 372, 373, 384, 383, 416, 417, 428, 427
213, 374, 375, 386, 385, 418, 419, 430, 429
214, 375, 376, 387, 386, 419, 420, 431, 430
215, 376, 377, 388, 387, 420, 421, 432, 431
216, 377, 378, 389, 388, 421, 422, 433, 432
217, 378, 379, 390, 389, 422, 423, 434, 433
218, 379, 380, 391, 390, 423, 424, 435, 434
219, 380, 381, 392, 391, 424, 425, 436, 435
220, 381, 382, 393, 392, 425, 426, 437, 436
221, 382, 383, 394, 393, 426, 427, 438, 437
222, 383, 384, 395, 394, 427, 428, 439, 438
223, 396, 397, 408, 407, 440, 441, 452, 451
224, 397, 398, 409, 408, 441, 442, 453, 452
225, 398, 399, 410, 409, 442, 443, 454, 453
226, 399, 400, 411, 410, 443, 444, 455, 454
227, 400, 401, 412, 411, 444, 445, 456, 455
228, 401, 402, 413, 412, 445, 446, 457, 456
229, 402, 403, 414, 413, 446, 447, 458, 457
230, 403, 404, 415, 414, 447, 448, 459, 458
231, 404, 405, 416, 415, 448, 449, 460, 459
232, 405, 406, 417, 416, 449, 450, 461, 460
233, 407, 408, 419, 418, 451, 452, 463, 462
234, 408, 409, 420, 419, 452, 453, 464, 463
235, 409, 410, 421, 420, 453, 454, 465, 464
236, 410, 411, 422, 421, 454, 455, 466, 465
237, 411, 412, 423, 422, 455, 456, 467, 466
238, 412, 413, 424, 423, 456, 457, 468, 467
239, 413, 414, 425, 424, 457, 458, 469, 468
240, 414, 415, 426, 425, 458, 459, 470, 469
241, 415, 416, 427, 426, 459, 460, 471, 470
242, 416, 417, 428, 427, 460, 461, 472, 471
243, 418, 419, 430, 429, 462, 463, 474, 473
244, 419, 420, 431, 430, 463, 464, 475, 474
245, 420, 421, 432, 431, 464, 465, 476, 475
246, 421, 422, 433, 432, 465, 466, 477, 476
247, 422, 423, 434, 433, 466, 467, 478, 477
248, 423, 424, 435, 434, 467, 468, 479, 478
249, 424, 425, 436, 435, 468, 469, 480, 479
250, 425, 426, 437, 436, 469, 470, 481, 480
251, 426, 427, 438, 437, 470, 471, 482, 481
252, 427, 428, 439, 438, 471, 472, 483, 482
253, 440, 441, 452, 451, 484, 485, 496, 495
254, 441, 442, 453, 452, 485, 486, 497, 496
255, 442, 443, 454, 453, 486, 487, 498, 497
256, 443, 444, 455, 454, 487, 488, 499, 498
257, 444, 445, 456, 455, 488, 489, 500, 499
258, 445, 446, 457, 456, 489, 490, 501, 500
259, 446, 447, 458, 457, 490, 491, 502, 501
260, 447, 448, 459, 458, 491, 492, 503, 502
261, 448, 449, 460, 459, 492, 493, 504, 503
262, 449, 450, 461, 460, 493, 494, 505, 504
263, 451, 452, 463, 462, 495, 496, 507, 506
264, 452, 453, 464, 463, 496, 497, 508, 507
265, 453, 454, 465, 464, 497, 498, 509, 508
266, 454, 455, 466, 465, 498, 499, 510, 509
267, 455, 456, 467, 466, 499, 500, 511, 510
268, 456, 457, 468, 467, 500, 501, 512, 511
269, 457, 458, 469, 468, 501, 502, 513, 512
270, 458, 459, 470, 469, 502, 503, 514, 513
271, 459, 460, 471, 470, 503, 504, 515, 514
272, 460, 461, 472, 471, 504, 505, 516, 515
273, 462, 463, 474, 473, 506, 507, 518, 517
274, 463, 464, 475, 474, 507, 508, 519, 518
275, 464, 465, 476, 475, 508, 509, 520, 519
276, 465, 466, 477, 476, 509, 510, 521, 520
277, 466, 467, 478, 477, 510, 511, 522, 521
278, 467, 468, 479, 478, 511, 512, 523, 522
279, 468, 469, 480, 479, 512, 513, 524, 523
280, 469, 470, 481, 480, 513, 514, 525, 524
281, 470, 471, 482, 481, 514, 515, 526, 525
282, 471, 472, 483, 482, 515, 516, 527, 526
*NSET, NSET=NBOTTOM
1, 2, 3, 4, 5, 6, 7, 8, 9, 10, 11, 12, 13, 14, 15, 16,
17, 18, 19, 20, 21, 22, 23, 24, 25, 26, 27, 28, 29, 30, 31, 32,
33, 34, 35, 36, 37, 38, 39, 40, 41, 42, 43, 44, 45, 46, 47, 48,
49, 50, 51, 52, 53, 54, 55, 56, 57, 58, 59, 60, 61, 62, 63, 64,
65, 66, 67, 68, 69, 70, 71, 72, 73, 74, 75, 76, 77, 78, 79, 80,
81, 82, 83, 84, 85, 86, 87, 88, 89, 90, 91, 92, 93, 94, 95, 96,
97, 98, 99, 100, 101, 102, 103, 104, 105, 106, 107, 108, 109, 110, 111, 112,
113, 114, 115, 116, 117
*NSET, NSET=NTOP
484, 485, 486, 487, 488, 489, 490, 491, 492, 493, 494, 495, 496, 497, 498, 499,
500, 501, 502, 503, 504, 505, 506, 507, 508, 509, 510, 511, 512, 513, 514, 515,
516, 517, 518, 519, 520, 521, 522, 523, 524, 525, 526, 527
*SURFACE, NAME=PLATE_TOP
97, S2
98, S2
99, S2
100, S2
101, S2
102, S2
103, S2
104, S2
105, S2
106, S2
107, S2
108, S2
109, S2
110, S2
111, S2
112, S2
113, S2
114, S2
115, S2
116, S2
117, S2
118, S2
119, S2
120, S2
121, S2
122, S2
123, S2
124, S2
125, S2
126, S2
127, S2
128, S2
129, S2
130, S2
131, S2
132, S2
133, S2
134, S2
135, S2
136, S2
137, S2
138, S2
139, S2
140, S2
141, S2
142, S2
143, S2
144, S2
145, S2
146, S2
147, S2
148, S2
149, S2
150, S2
151, S2
152, S2
153, S2
154, S2
155, S2
156, S2
157, S2
158, S2
159, S2
160, S2
161, S2
162, S2
163, S2
164, S2
165, S2
166, S2
167, S2
168, S2
169, S2
170, S2
171, S2
172, S2
173, S2
174, S2
175, S2
176, S2
177, S2
178, S2
179, S2
180, S2
181, S2
182, S2
183, S2
184, S2
185, S2
186, S2
187, S2
188, S2
189, S2
190, S2
191, S2
192, S2
*SURFACE, NAME=ROCKER_BOTTOM
193, S1
194, S1
195, S1
196, S1
197, S1
198, S1
199, S1
200, S1
201, S1
202, S1
203, S1
204, S1
205, S1
206, S1
207, S1
208, S1
209, S1
210, S1
211, S1
212, S1
213, S1
214, S1
215, S1
216, S1
217, S1
218, S1
219, S1
220, S1
221, S1
222, S1
*MATERIAL, NAME=STEEL
*ELASTIC
210000., 0.3
*SOLID SECTION, ELSET=PLATE, MATERIAL=STEEL
*SOLID SECTION, ELSET=ROCKER, MATERIAL=STEEL
*SURFACE INTERACTION, NAME=STEEL_ON_STEEL
*SURFACE BEHAVIOR, PRESSURE-OVERCLOSURE=LINEAR
1000000.
*CONTACT PAIR, INTERACTION=STEEL_ON_STEEL, TYPE=SURFACE TO SURFACE
ROCKER_BOTTOM, PLATE_TOP
*BOUNDARY
NBOTTOM, 1, 3
NTOP, 1, 2
*STEP, INC=100
*STATIC
1., 1.
*BOUNDARY
NTOP, 3, 3, -0.024
*NODE FILE, CONTACT ELEMENTS
U
*EL FILE
S
*CONTACT FILE
CDIS, CSTR
*END STEP
