*HEADING
ccxview sample: a rocker pressed onto a plate, node to surface contact
*NODE, NSET=NALL
1, -30, -20, -12
2, -25, -20, -12
3, -20, -20, -12
4, -15, -20, -12
5, -10, -20, -12
6, -5, -20, -12
7, 0, -20, -12
8, 5, -20, -12
9, 10, -20, -12
10, 15, -20, -12
11, 20, -20, -12
12, 25, -20, -12
13, 30, -20, -12
14, -30, -15, -12
15, -25, -15, -12
16, -20, -15, -12
17, -15, -15, -12
18, -10, -15, -12
19, -5, -15, -12
20, 0, -15, -12
21, 5, -15, -12
22, 10, -15, -12
23, 15, -15, -12
24, 20, -15, -12
25, 25, -15, -12
26, 30, -15, -12
27, -30, -10, -12
28, -25, -10, -12
29, -20, -10, -12
30, -15, -10, -12
31, -10, -10, -12
32, -5, -10, -12
33, 0, -10, -12
34, 5, -10, -12
35, 10, -10, -12
36, 15, -10, -12
37, 20, -10, -12
38, 25, -10, -12
39, 30, -10, -12
40, -30, -5, -12
41, -25, -5, -12
42, -20, -5, -12
43, -15, -5, -12
44, -10, -5, -12
45, -5, -5, -12
46, 0, -5, -12
47, 5, -5, -12
48, 10, -5, -12
49, 15, -5, -12
50, 20, -5, -12
51, 25, -5, -12
52, 30, -5, -12
53, -30, 0, -12
54, -25, 0, -12
55, -20, 0, -12
56, -15, 0, -12
57, -10, 0, -12
58, -5, 0, -12
59, 0, 0, -12
60, 5, 0, -12
61, 10, 0, -12
62, 15, 0, -12
63, 20, 0, -12
64, 25, 0, -12
65, 30, 0, -12
66, -30, 5, -12
67, -25, 5, -12
68, -20, 5, -12
69, -15, 5, -12
70, -10, 5, -12
71, -5, 5, -12
72, 0, 5, -12
73, 5, 5, -12
74, 10, 5, -12
75, 15, 5, -12
76, 20, 5, -12
77, 25, 5, -12
78, 30, 5, -12
79, -30, 10, -12
80, -25, 10, -12
81, -20, 10, -12
82, -15, 10, -12
83, -10, 10, -12
84, -5, 10, -12
85, 0, 10, -12
86, 5, 10, -12
87, 10, 10, -12
88, 15, 10, -12
89, 20, 10, -12
90, 25, 10, -12
91, 30, 10, -12
92, -30, 15, -12
93, -25, 15, -12
94, -20, 15, -12
95, -15, 15, -12
96, -10, 15, -12
97, -5, 15, -12
98, 0, 15, -12
99, 5, 15, -12
100, 10, 15, -12
101, 15, 15, -12
102, 20, 15, -12
103, 25, 15, -12
104, 30, 15, -12
105, -30, 20, -12
106, -25, 20, -12
107, -20, 20, -12
108, -15, 20, -12
109, -10, 20, -12
110, -5, 20, -12
111, 0, 20, -12
112, 5, 20, -12
113, 10, 20, -12
114, 15, 20, -12
115, 20, 20, -12
116, 25, 20, -12
117, 30, 20, -12
118, -30, -20, -8
119, -25, -20, -8
120, -20, -20, -8
121, -15, -20, -8
122, -10, -20, -8
123, -5, -20, -8
124, 0, -20, -8
125, 5, -20, -8
126, 10, -20, -8
127, 15, -20, -8
128, 20, -20, -8
129, 25, -20, -8
130, 30, -20, -8
131, -30, -15, -8
132, -25, -15, -8
133, -20, -15, -8
134, -15, -15, -8
135, -10, -15, -8
136, -5, -15, -8
137, 0, -15, -8
138, 5, -15, -8
139, 10, -15, -8
140, 15, -15, -8
141, 20, -15, -8
142, 25, -15, -8
143, 30, -15, -8
144, -30, -10, -8
145, -25, -10, -8
146, -20, -10, -8
147, -15, -10, -8
148, -10, -10, -8
149, -5, -10, -8
150, 0, -10, -8
151, 5, -10, -8
152, 10, -10, -8
153, 15, -10, -8
154, 20, -10, -8
155, 25, -10, -8
156, 30, -10, -8
157, -30, -5, -8
158, -25, -5, -8
159, -20, -5, -8
160, -15, -5, -8
161, -10, -5, -8
162, -5, -5, -8
163, 0, -5, -8
164, 5, -5, -8
165, 10, -5, -8
166, 15, -5, -8
167, 20, -5, -8
168, 25, -5, -8
169, 30, -5, -8
170, -30, 0, -8
171, -25, 0, -8
172, -20, 0, -8
173, -15, 0, -8
174, -10, 0, -8
175, -5, 0, -8
176, 0, 0, -8
177, 5, 0, -8
178, 10, 0, -8
179, 15, 0, -8
180, 20, 0, -8
181, 25, 0, -8
182, 30, 0, -8
183, -30, 5, -8
184, -25, 5, -8
185, -20, 5, -8
186, -15, 5, -8
187, -10, 5, -8
188, -5, 5, -8
189, 0, 5, -8
190, 5, 5, -8
191, 10, 5, -8
192, 15, 5, -8
193, 20, 5, -8
194, 25, 5, -8
195, 30, 5, -8
196, -30, 10, -8
197, -25, 10, -8
198, -20, 10, -8
199, -15, 10, -8
200, -10, 10, -8
201, -5, 10, -8
202, 0, 10, -8
203, 5, 10, -8
204, 10, 10, -8
205, 15, 10, -8
206, 20, 10, -8
207, 25, 10, -8
208, 30, 10, -8
209, -30, 15, -8
210, -25, 15, -8
211, -20, 15, -8
212, -15, 15, -8
213, -10, 15, -8
214, -5, 15, -8
215, 0, 15, -8
216, 5, 15, -8
217, 10, 15, -8
218, 15, 15, -8
219, 20, 15, -8
220, 25, 15, -8
221, 30, 15, -8
222, -30, 20, -8
223, -25, 20, -8
224, -20, 20, -8
225, -15, 20, -8
226, -10, 20, -8
227, -5, 20, -8
228, 0, 20, -8
229, 5, 20, -8
230, 10, 20, -8
231, 15, 20, -8
232, 20, 20, -8
233, 25, 20, -8
234, 30, 20, -8
235, -30, -20, -4
236, -25, -20, -4
237, -20, -20, -4
238, -15, -20, -4
239, -10, -20, -4
240, -5, -20, -4
241, 0, -20, -4
242, 5, -20, -4
243, 10, -20, -4
244, 15, -20, -4
245, 20, -20, -4
246, 25, -20, -4
247, 30, -20, -4
248, -30, -15, -4
249, -25, -15, -4
250, -20, -15, -4
251, -15, -15, -4
252, -10, -15, -4
253, -5, -15, -4
254, 0, -15, -4
255, 5, -15, -4
256, 10, -15, -4
257, 15, -15, -4
258, 20, -15, -4
259, 25, -15, -4
260, 30, -15, -4
261, -30, -10, -4
262, -25, -10, -4
263, -20, -10, -4
264, -15, -10, -4
265, -10, -10, -4
266, -5, -10, -4
267, 0, -10, -4
268, 5, -10, -4
269, 10, -10, -4
270, 15, -10, -4
271, 20, -10, -4
272, 25, -10, -4
273, 30, -10, -4
274, -30, -5, -4
275, -25, -5, -4
276, -20, -5, -4
277, -15, -5, -4
278, -10, -5, -4
279, -5, -5, -4
280, 0, -5, -4
281, 5, -5, -4
282, 10, -5, -4
283, 15, -5, -4
284, 20, -5, -4
285, 25, -5, -4
286, 30, -5, -4
287, -30, 0, -4
288, -25, 0, -4
289, -20, 0, -4
290, -15, 0, -4
291, -10, 0, -4
292, -5, 0, -4
293, 0, 0, -4
294, 5, 0, -4
295, 10, 0, -4
296, 15, 0, -4
297, 20, 0, -4
298, 25, 0, -4
299, 30, 0, -4
300, -30, 5, -4
301, -25, 5, -4
302, -20, 5, -4
303, -15, 5, -4
304, -10, 5, -4
305, -5, 5, -4
306, 0, 5, -4
307, 5, 5, -4
308, 10, 5, -4
309, 15, 5, -4
310, 20, 5, -4
311, 25, 5, -4
312, 30, 5, -4
313, -30, 10, -4
314, -25, 10, -4
315, -20, 10, -4
316, -15, 10, -4
317, -10, 10, -4
318, -5, 10, -4
319, 0, 10, -4
320, 5, 10, -4
321, 10, 10, -4
322, 15, 10, -4
323, 20, 10, -4
324, 25, 10, -4
325, 30, 10, -4
326, -30, 15, -4
327, -25, 15, -4
328, -20, 15, -4
329, -15, 15, -4
330, -10, 15, -4
331, -5, 15, -4
332, 0, 15, -4
333, 5, 15, -4
334, 10, 15, -4
335, 15, 15, -4
336, 20, 15, -4
337, 25, 15, -4
338, 30, 15, -4
339, -30, 20, -4
340, -25, 20, -4
341, -20, 20, -4
342, -15, 20, -4
343, -10, 20, -4
344, -5, 20, -4
345, 0, 20, -4
346, 5, 20, -4
347, 10, 20, -4
348, 15, 20, -4
349, 20, 20, -4
350, 25, 20, -4
351, 30, 20, -4
352, -30, -20, 0
353, -25, -20, 0
354, -20, -20, 0
355, -15, -20, 0
356, -10, -20, 0
357, -5, -20, 0
358, 0, -20, 0
359, 5, -20, 0
360, 10, -20, 0
361, 15, -20, 0
362, 20, -20, 0
363, 25, -20, 0
364, 30, -20, 0
365, -30, -15, 0
366, -25, -15, 0
367, -20, -15, 0
368, -15, -15, 0
369, -10, -15, 0
370, -5, -15, 0
371, 0, -15, 0
372, 5, -15, 0
373, 10, -15, 0
374, 15, -15, 0
375, 20, -15, 0
376, 25, -15, 0
377, 30, -15, 0
378, -30, -10, 0
379, -25, -10, 0
380, -20, -10, 0
381, -15, -10, 0
382, -10, -10, 0
383, -5, -10, 0
384, 0, -10, 0
385, 5, -10, 0
386, 10, -10, 0
387, 15, -10, 0
388, 20, -10, 0
389, 25, -10, 0
390, 30, -10, 0
391, -30, -5, 0
392, -25, -5, 0
393, -20, -5, 0
394, -15, -5, 0
395, -10, -5, 0
396, -5, -5, 0
397, 0, -5, 0
398, 5, -5, 0
399, 10, -5, 0
400, 15, -5, 0
401, 20, -5, 0
402, 25, -5, 0
403, 30, -5, 0
404, -30, 0, 0
405, -25, 0, 0
406, -20, 0, 0
407, -15, 0, 0
408, -10, 0, 0
409, -5, 0, 0
410, 0, 0, 0
411, 5, 0, 0
412, 10, 0, 0
413, 15, 0, 0
414, 20, 0, 0
415, 25, 0, 0
416, 30, 0, 0
417, -30, 5, 0
418, -25, 5, 0
419, -20, 5, 0
420, -15, 5, 0
421, -10, 5, 0
422, -5, 5, 0
423, 0, 5, 0
424, 5, 5, 0
425, 10, 5, 0
426, 15, 5, 0
427, 20, 5, 0
428, 25, 5, 0
429, 30, 5, 0
430, -30, 10, 0
431, -25, 10, 0
432, -20, 10, 0
433, -15, 10, 0
434, -10, 10, 0
435, -5, 10, 0
436, 0, 10, 0
437, 5, 10, 0
438, 10, 10, 0
439, 15, 10, 0
440, 20, 10, 0
441, 25, 10, 0
442, 30, 10, 0
443, -30, 15, 0
444, -25, 15, 0
445, -20, 15, 0
446, -15, 15, 0
447, -10, 15, 0
448, -5, 15, 0
449, 0, 15, 0
450, 5, 15, 0
451, 10, 15, 0
452, 15, 15, 0
453, 20, 15, 0
454, 25, 15, 0
455, 30, 15, 0
456, -30, 20, 0
457, -25, 20, 0
458, -20, 20, 0
459, -15, 20, 0
460, -10, 20, 0
461, -5, 20, 0
462, 0, 20, 0
463, 5, 20, 0
464, 10, 20, 0
465, 15, 20, 0
466, 20, 20, 0
467, 25, 20, 0
468, 30, 20, 0
469, -15, -12, 0.1125
470, -13, -12, 0.0845
471, -11, -12, 0.0605
472, -9, -12, 0.0405
473, -7, -12, 0.0245
474, -5, -12, 0.0125
475, -3, -12, 0.0045
476, -1, -12, 0.0005
477, 1, -12, 0.0005
478, 3, -12, 0.0045
479, 5, -12, 0.0125
480, 7, -12, 0.0245
481, 9, -12, 0.0405
482, 11, -12, 0.0605
483, 13, -12, 0.0845
484, 15, -12, 0.1125
485, -15, -8.57143, 0.1125
486, -13, -8.57143, 0.0845
487, -11, -8.57143, 0.0605
488, -9, -8.57143, 0.0405
489, -7, -8.57143, 0.0245
490, -5, -8.57143, 0.0125
491, -3, -8.57143, 0.0045
492, -1, -8.57143, 0.0005
493, 1, -8.57143, 0.0005
494, 3, -8.57143, 0.0045
495, 5, -8.57143, 0.0125
496, 7, -8.57143, 0.0245
497, 9, -8.57143, 0.0405
498, 11, -8.57143, 0.0605
499, 13, -8.57143, 0.0845
500, 15, -8.57143, 0.1125
501, -15, -5.14286, 0.1125
502, -13, -5.14286, 0.0845
503, -11, -5.14286, 0.0605
504, -9, -5.14286, 0.0405
505, -7, -5.14286, 0.0245
506, -5, -5.14286, 0.0125
507, -3, -5.14286, 0.0045
508, -1, -5.14286, 0.0005
509, 1, -5.14286, 0.0005
510, 3, -5.14286, 0.0045
511, 5, -5.14286, 0.0125
512, 7, -5.14286, 0.0245
513, 9, -5.14286, 0.0405
514, 11, -5.14286, 0.0605
515, 13, -5.14286, 0.0845
516, 15, -5.14286, 0.1125
517, -15, -1.71429, 0.1125
518, -13, -1.71429, 0.0845
519, -11, -1.71429, 0.0605
520, -9, -1.71429, 0.0405
521, -7, -1.71429, 0.0245
522, -5, -1.71429, 0.0125
523, -3, -1.71429, 0.0045
524, -1, -1.71429, 0.0005
525, 1, -1.71429, 0.0005
526, 3, -1.71429, 0.0045
527, 5, -1.71429, 0.0125
528, 7, -1.71429, 0.0245
529, 9, -1.71429, 0.0405
530, 11, -1.71429, 0.0605
531, 13, -1.71429, 0.0845
532, 15, -1.71429, 0.1125
533, -15, 1.71429, 0.1125
534, -13, 1.71429, 0.0845
535, -11, 1.71429, 0.0605
536, -9, 1.71429, 0.0405
537, -7, 1.71429, 0.0245
538, -5, 1.71429, 0.0125
539, -3, 1.71429, 0.0045
540, -1, 1.71429, 0.0005
541, 1, 1.71429, 0.0005
542, 3, 1.71429, 0.0045
543, 5, 1.71429, 0.0125
544, 7, 1.71429, 0.0245
545, 9, 1.71429, 0.0405
546, 11, 1.71429, 0.0605
547, 13, 1.71429, 0.0845
548, 15, 1.71429, 0.1125
549, -15, 5.14286, 0.1125
550, -13, 5.14286, 0.0845
551, -11, 5.14286, 0.0605
552, -9, 5.14286, 0.0405
553, -7, 5.14286, 0.0245
554, -5, 5.14286, 0.0125
555, -3, 5.14286, 0.0045
556, -1, 5.14286, 0.0005
557, 1, 5.14286, 0.0005
558, 3, 5.14286, 0.0045
559, 5, 5.14286, 0.0125
560, 7, 5.14286, 0.0245
561, 9, 5.14286, 0.0405
562, 11, 5.14286, 0.0605
563, 13, 5.14286, 0.0845
564, 15, 5.14286, 0.1125
565, -15, 8.57143, 0.1125
566, -13, 8.57143, 0.0845
567, -11, 8.57143, 0.0605
568, -9, 8.57143, 0.0405
569, -7, 8.57143, 0.0245
570, -5, 8.57143, 0.0125
571, -3, 8.57143, 0.0045
572, -1, 8.57143, 0.0005
573, 1, 8.57143, 0.0005
574, 3, 8.57143, 0.0045
575, 5, 8.57143, 0.0125
576, 7, 8.57143, 0.0245
577, 9, 8.57143, 0.0405
578, 11, 8.57143, 0.0605
579, 13, 8.57143, 0.0845
580, 15, 8.57143, 0.1125
581, -15, 12, 0.1125
582, -13, 12, 0.0845
583, -11, 12, 0.0605
584, -9, 12, 0.0405
585, -7, 12, 0.0245
586, -5, 12, 0.0125
587, -3, 12, 0.0045
588, -1, 12, 0.0005
589, 1, 12, 0.0005
590, 3, 12, 0.0045
591, 5, 12, 0.0125
592, 7, 12, 0.0245
593, 9, 12, 0.0405
594, 11, 12, 0.0605
595, 13, 12, 0.0845
596, 15, 12, 0.1125
597, -15, -12, 3.09
598, -13, -12, 3.0676
599, -11, -12, 3.0484
600, -9, -12, 3.0324
601, -7, -12, 3.0196
602, -5, -12, 3.01
603, -3, -12, 3.0036
604, -1, -12, 3.0004
605, 1, -12, 3.0004
606, 3, -12, 3.0036
607, 5, -12, 3.01
608, 7, -12, 3.0196
609, 9, -12, 3.0324
610, 11, -12, 3.0484
611, 13, -12, 3.0676
612, 15, -12, 3.09
613, -15, -8.57143, 3.09
614, -13, -8.57143, 3.0676
615, -11, -8.57143, 3.0484
616, -9, -8.57143, 3.0324
617, -7, -8.57143, 3.0196
618, -5, -8.57143, 3.01
619, -3, -8.57143, 3.0036
620, -1, -8.57143, 3.0004
621, 1, -8.57143, 3.0004
622, 3, -8.57143, 3.0036
623, 5, -8.57143, 3.01
624, 7, -8.57143, 3.0196
625, 9, -8.57143, 3.0324
626, 11, -8.57143, 3.0484
627, 13, -8.57143, 3.0676
628, 15, -8.57143, 3.09
629, -15, -5.14286, 3.09
630, -13, -5.14286, 3.0676
631, -11, -5.14286, 3.0484
632, -9, -5.14286, 3.0324
633, -7, -5.14286, 3.0196
634, -5, -5.14286, 3.01
635, -3, -5.14286, 3.0036
636, -1, -5.14286, 3.0004
637, 1, -5.14286, 3.0004
638, 3, -5.14286, 3.0036
639, 5, -5.14286, 3.01
640, 7, -5.14286, 3.0196
641, 9, -5.14286, 3.0324
642, 11, -5.14286, 3.0484
643, 13, -5.14286, 3.0676
644, 15, -5.14286, 3.09
645, -15, -1.71429, 3.09
646, -13, -1.71429, 3.0676
647, -11, -1.71429, 3.0484
648, -9, -1.71429, 3.0324
649, -7, -1.71429, 3.0196
650, -5, -1.71429, 3.01
651, -3, -1.71429, 3.0036
652, -1, -1.71429, 3.0004
653, 1, -1.71429, 3.0004
654, 3, -1.71429, 3.0036
655, 5, -1.71429, 3.01
656, 7, -1.71429, 3.0196
657, 9, -1.71429, 3.0324
658, 11, -1.71429, 3.0484
659, 13, -1.71429, 3.0676
660, 15, -1.71429, 3.09
661, -15, 1.71429, 3.09
662, -13, 1.71429, 3.0676
663, -11, 1.71429, 3.0484
664, -9, 1.71429, 3.0324
665, -7, 1.71429, 3.0196
666, -5, 1.71429, 3.01
667, -3, 1.71429, 3.0036
668, -1, 1.71429, 3.0004
669, 1, 1.71429, 3.0004
670, 3, 1.71429, 3.0036
671, 5, 1.71429, 3.01
672, 7, 1.71429, 3.0196
673, 9, 1.71429, 3.0324
674, 11, 1.71429, 3.0484
675, 13, 1.71429, 3.0676
676, 15, 1.71429, 3.09
677, -15, 5.14286, 3.09
678, -13, 5.14286, 3.0676
679, -11, 5.14286, 3.0484
680, -9, 5.14286, 3.0324
681, -7, 5.14286, 3.0196
682, -5, 5.14286, 3.01
683, -3, 5.14286, 3.0036
684, -1, 5.14286, 3.0004
685, 1, 5.14286, 3.0004
686, 3, 5.14286, 3.0036
687, 5, 5.14286, 3.01
688, 7, 5.14286, 3.0196
689, 9, 5.14286, 3.0324
690, 11, 5.14286, 3.0484
691, 13, 5.14286, 3.0676
692, 15, 5.14286, 3.09
693, -15, 8.57143, 3.09
694, -13, 8.57143, 3.0676
695, -11, 8.57143, 3.0484
696, -9, 8.57143, 3.0324
697, -7, 8.57143, 3.0196
698, -5, 8.57143, 3.01
699, -3, 8.57143, 3.0036
700, -1, 8.57143, 3.0004
701, 1, 8.57143, 3.0004
702, 3, 8.57143, 3.0036
703, 5, 8.57143, 3.01
704, 7, 8.57143, 3.0196
705, 9, 8.57143, 3.0324
706, 11, 8.57143, 3.0484
707, 13, 8.57143, 3.0676
708, 15, 8.57143, 3.09
709, -15, 12, 3.09
710, -13, 12, 3.0676
711, -11, 12, 3.0484
712, -9, 12, 3.0324
713, -7, 12, 3.0196
714, -5, 12, 3.01
715, -3, 12, 3.0036
716, -1, 12, 3.0004
717, 1, 12, 3.0004
718, 3, 12, 3.0036
719, 5, 12, 3.01
720, 7, 12, 3.0196
721, 9, 12, 3.0324
722, 11, 12, 3.0484
723, 13, 12, 3.0676
724, 15, 12, 3.09
725, -15, -12, 6.0675
726, -13, -12, 6.0507
727, -11, -12, 6.0363
728, -9, -12, 6.0243
729, -7, -12, 6.0147
730, -5, -12, 6.0075
731, -3, -12, 6.0027
732, -1, -12, 6.0003
733, 1, -12, 6.0003
734, 3, -12, 6.0027
735, 5, -12, 6.0075
736, 7, -12, 6.0147
737, 9, -12, 6.0243
738, 11, -12, 6.0363
739, 13, -12, 6.0507
740, 15, -12, 6.0675
741, -15, -8.57143, 6.0675
742, -13, -8.57143, 6.0507
743, -11, -8.57143, 6.0363
744, -9, -8.57143, 6.0243
745, -7, -8.57143, 6.0147
746, -5, -8.57143, 6.0075
747, -3, -8.57143, 6.0027
748, -1, -8.57143, 6.0003
749, 1, -8.57143, 6.0003
750, 3, -8.57143, 6.0027
751, 5, -8.57143, 6.0075
752, 7, -8.57143, 6.0147
753, 9, -8.57143, 6.0243
754, 11, -8.57143, 6.0363
755, 13, -8.57143, 6.0507
756, 15, -8.57143, 6.0675
757, -15, -5.14286, 6.0675
758, -13, -5.14286, 6.0507
759, -11, -5.14286, 6.0363
760, -9, -5.14286, 6.0243
761, -7, -5.14286, 6.0147
762, -5, -5.14286, 6.0075
763, -3, -5.14286, 6.0027
764, -1, -5.14286, 6.0003
765, 1, -5.14286, 6.0003
766, 3, -5.14286, 6.0027
767, 5, -5.14286, 6.0075
768, 7, -5.14286, 6.0147
769, 9, -5.14286, 6.0243
770, 11, -5.14286, 6.0363
771, 13, -5.14286, 6.0507
772, 15, -5.14286, 6.0675
773, -15, -1.71429, 6.0675
774, -13, -1.71429, 6.0507
775, -11, -1.71429, 6.0363
776, -9, -1.71429, 6.0243
777, -7, -1.71429, 6.0147
778, -5, -1.71429, 6.0075
779, -3, -1.71429, 6.0027
780, -1, -1.71429, 6.0003
781, 1, -1.71429, 6.0003
782, 3, -1.71429, 6.0027
783, 5, -1.71429, 6.0075
784, 7, -1.71429, 6.0147
785, 9, -1.71429, 6.0243
786, 11, -1.71429, 6.0363
787, 13, -1.71429, 6.0507
788, 15, -1.71429, 6.0675
789, -15, 1.71429, 6.0675
790, -13, 1.71429, 6.0507
791, -11, 1.71429, 6.0363
792, -9, 1.71429, 6.0243
793, -7, 1.71429, 6.0147
794, -5, 1.71429, 6.0075
795, -3, 1.71429, 6.0027
796, -1, 1.71429, 6.0003
797, 1, 1.71429, 6.0003
798, 3, 1.71429, 6.0027
799, 5, 1.71429, 6.0075
800, 7, 1.71429, 6.0147
801, 9, 1.71429, 6.0243
802, 11, 1.71429, 6.0363
803, 13, 1.71429, 6.0507
804, 15, 1.71429, 6.0675
805, -15, 5.14286, 6.0675
806, -13, 5.14286, 6.0507
807, -11, 5.14286, 6.0363
808, -9, 5.14286, 6.0243
809, -7, 5.14286, 6.0147
810, -5, 5.14286, 6.0075
811, -3, 5.14286, 6.0027
812, -1, 5.14286, 6.0003
813, 1, 5.14286, 6.0003
814, 3, 5.14286, 6.0027
815, 5, 5.14286, 6.0075
816, 7, 5.14286, 6.0147
817, 9, 5.14286, 6.0243
818, 11, 5.14286, 6.0363
819, 13, 5.14286, 6.0507
820, 15, 5.14286, 6.0675
821, -15, 8.57143, 6.0675
822, -13, 8.57143, 6.0507
823, -11, 8.57143, 6.0363
824, -9, 8.57143, 6.0243
825, -7, 8.57143, 6.0147
826, -5, 8.57143, 6.0075
827, -3, 8.57143, 6.0027
828, -1, 8.57143, 6.0003
829, 1, 8.57143, 6.0003
830, 3, 8.57143, 6.0027
831, 5, 8.57143, 6.0075
832, 7, 8.57143, 6.0147
833, 9, 8.57143, 6.0243
834, 11, 8.57143, 6.0363
835, 13, 8.57143, 6.0507
836, 15, 8.57143, 6.0675
837, -15, 12, 6.0675
838, -13, 12, 6.0507
839, -11, 12, 6.0363
840, -9, 12, 6.0243
841, -7, 12, 6.0147
842, -5, 12, 6.0075
843, -3, 12, 6.0027
844, -1, 12, 6.0003
845, 1, 12, 6.0003
846, 3, 12, 6.0027
847, 5, 12, 6.0075
848, 7, 12, 6.0147
849, 9, 12, 6.0243
850, 11, 12, 6.0363
851, 13, 12, 6.0507
852, 15, 12, 6.0675
853, -15, -12, 9.045
854, -13, -12, 9.0338
855, -11, -12, 9.0242
856, -9, -12, 9.0162
857, -7, -12, 9.0098
858, -5, -12, 9.005
859, -3, -12, 9.0018
860, -1, -12, 9.0002
861, 1, -12, 9.0002
862, 3, -12, 9.0018
863, 5, -12, 9.005
864, 7, -12, 9.0098
865, 9, -12, 9.0162
866, 11, -12, 9.0242
867, 13, -12, 9.0338
868, 15, -12, 9.045
869, -15, -8.57143, 9.045
870, -13, -8.57143, 9.0338
871, -11, -8.57143, 9.0242
872, -9, -8.57143, 9.0162
873, -7, -8.57143, 9.0098
874, -5, -8.57143, 9.005
875, -3, -8.57143, 9.0018
876, -1, -8.57143, 9.0002
877, 1, -8.57143, 9.0002
878, 3, -8.57143, 9.0018
879, 5, -8.57143, 9.005
880, 7, -8.57143, 9.0098
881, 9, -8.57143, 9.0162
882, 11, -8.57143, 9.0242
883, 13, -8.57143, 9.0338
884, 15, -8.57143, 9.045
885, -15, -5.14286, 9.045
886, -13, -5.14286, 9.0338
887, -11, -5.14286, 9.0242
888, -9, -5.14286, 9.0162
889, -7, -5.14286, 9.0098
890, -5, -5.14286, 9.005
891, -3, -5.14286, 9.0018
892, -1, -5.14286, 9.0002
893, 1, -5.14286, 9.0002
894, 3, -5.14286, 9.0018
895, 5, -5.14286, 9.005
896, 7, -5.14286, 9.0098
897, 9, -5.14286, 9.0162
898, 11, -5.14286, 9.0242
899, 13, -5.14286, 9.0338
900, 15, -5.14286, 9.045
901, -15, -1.71429, 9.045
902, -13, -1.71429, 9.0338
903, -11, -1.71429, 9.0242
904, -9, -1.71429, 9.0162
905, -7, -1.71429, 9.0098
906, -5, -1.71429, 9.005
907, -3, -1.71429, 9.0018
908, -1, -1.71429, 9.0002
909, 1, -1.71429, 9.0002
910, 3, -1.71429, 9.0018
911, 5, -1.71429, 9.005
912, 7, -1.71429, 9.0098
913, 9, -1.71429, 9.0162
914, 11, -1.71429, 9.0242
915, 13, -1.71429, 9.0338
916, 15, -1.71429, 9.045
917, -15, 1.71429, 9.045
918, -13, 1.71429, 9.0338
919, -11, 1.71429, 9.0242
920, -9, 1.71429, 9.0162
921, -7, 1.71429, 9.0098
922, -5, 1.71429, 9.005
923, -3, 1.71429, 9.0018
924, -1, 1.71429, 9.0002
925, 1, 1.71429, 9.0002
926, 3, 1.71429, 9.0018
927, 5, 1.71429, 9.005
928, 7, 1.71429, 9.0098
929, 9, 1.71429, 9.0162
930, 11, 1.71429, 9.0242
931, 13, 1.71429, 9.0338
932, 15, 1.71429, 9.045
933, -15, 5.14286, 9.045
934, -13, 5.14286, 9.0338
935, -11, 5.14286, 9.0242
936, -9, 5.14286, 9.0162
937, -7, 5.14286, 9.0098
938, -5, 5.14286, 9.005
939, -3, 5.14286, 9.0018
940, -1, 5.14286, 9.0002
941, 1, 5.14286, 9.0002
942, 3, 5.14286, 9.0018
943, 5, 5.14286, 9.005
944, 7, 5.14286, 9.0098
945, 9, 5.14286, 9.0162
946, 11, 5.14286, 9.0242
947, 13, 5.14286, 9.0338
948, 15, 5.14286, 9.045
949, -15, 8.57143, 9.045
950, -13, 8.57143, 9.0338
951, -11, 8.57143, 9.0242
952, -9, 8.57143, 9.0162
953, -7, 8.57143, 9.0098
954, -5, 8.57143, 9.005
955, -3, 8.57143, 9.0018
956, -1, 8.57143, 9.0002
957, 1, 8.57143, 9.0002
958, 3, 8.57143, 9.0018
959, 5, 8.57143, 9.005
960, 7, 8.57143, 9.0098
961, 9, 8.57143, 9.0162
962, 11, 8.57143, 9.0242
963, 13, 8.57143, 9.0338
964, 15, 8.57143, 9.045
965, -15, 12, 9.045
966, -13, 12, 9.0338
967, -11, 12, 9.0242
968, -9, 12, 9.0162
969, -7, 12, 9.0098
970, -5, 12, 9.005
971, -3, 12, 9.0018
972, -1, 12, 9.0002
973, 1, 12, 9.0002
974, 3, 12, 9.0018
975, 5, 12, 9.005
976, 7, 12, 9.0098
977, 9, 12, 9.0162
978, 11, 12, 9.0242
979, 13, 12, 9.0338
980, 15, 12, 9.045
981, -15, -12, 12.0225
982, -13, -12, 12.0169
983, -11, -12, 12.0121
984, -9, -12, 12.0081
985, -7, -12, 12.0049
986, -5, -12, 12.0025
987, -3, -12, 12.0009
988, -1, -12, 12.0001
989, 1, -12, 12.0001
990, 3, -12, 12.0009
991, 5, -12, 12.0025
992, 7, -12, 12.0049
993, 9, -12, 12.0081
994, 11, -12, 12.0121
995, 13, -12, 12.0169
996, 15, -12, 12.0225
997, -15, -8.57143, 12.0225
998, -13, -8.57143, 12.0169
999, -11, -8.57143, 12.0121
1000, -9, -8.57143, 12.0081
1001, -7, -8.57143, 12.0049
1002, -5, -8.57143, 12.0025
1003, -3, -8.57143, 12.0009
1004, -1, -8.57143, 12.0001
1005, 1, -8.57143, 12.0001
1006, 3, -8.57143, 12.0009
1007, 5, -8.57143, 12.0025
1008, 7, -8.57143, 12.0049
1009, 9, -8.57143, 12.0081
1010, 11, -8.57143, 12.0121
1011, 13, -8.57143, 12.0169
1012, 15, -8.57143, 12.0225
1013, -15, -5.14286, 12.0225
1014, -13, -5.14286, 12.0169
1015, -11, -5.14286, 12.0121
1016, -9, -5.14286, 12.0081
1017, -7, -5.14286, 12.0049
1018, -5, -5.14286, 12.0025
1019, -3, -5.14286, 12.0009
1020, -1, -5.14286, 12.0001
1021, 1, -5.14286, 12.0001
1022, 3, -5.14286, 12.0009
1023, 5, -5.14286, 12.0025
1024, 7, -5.14286, 12.0049
1025, 9, -5.14286, 12.0081
1026, 11, -5.14286, 12.0121
1027, 13, -5.14286, 12.0169
1028, 15, -5.14286, 12.0225
1029, -15, -1.71429, 12.0225
1030, -13, -1.71429, 12.0169
1031, -11, -1.71429, 12.0121
1032, -9, -1.71429, 12.0081
1033, -7, -1.71429, 12.0049
1034, -5, -1.71429, 12.0025
1035, -3, -1.71429, 12.0009
1036, -1, -1.71429, 12.0001
1037, 1, -1.71429, 12.0001
1038, 3, -1.71429, 12.0009
1039, 5, -1.71429, 12.0025
1040, 7, -1.71429, 12.0049
1041, 9, -1.71429, 12.0081
1042, 11, -1.71429, 12.0121
1043, 13, -1.71429, 12.0169
1044, 15, -1.71429, 12.0225
1045, -15, 1.71429, 12.0225
1046, -13, 1.71429, 12.0169
1047, -11, 1.71429, 12.0121
1048, -9, 1.71429, 12.0081
1049, -7, 1.71429, 12.0049
1050, -5, 1.71429, 12.0025
1051, -3, 1.71429, 12.0009
1052, -1, 1.71429, 12.0001
1053, 1, 1.71429, 12.0001
1054, 3, 1.71429, 12.0009
1055, 5, 1.71429, 12.0025
1056, 7, 1.71429, 12.0049
1057, 9, 1.71429, 12.0081
1058, 11, 1.71429, 12.0121
1059, 13, 1.71429, 12.0169
1060, 15, 1.71429, 12.0225
1061, -15, 5.14286, 12.0225
1062, -13, 5.14286, 12.0169
1063, -11, 5.14286, 12.0121
1064, -9, 5.14286, 12.0081
1065, -7, 5.14286, 12.0049
1066, -5, 5.14286, 12.0025
1067, -3, 5.14286, 12.0009
1068, -1, 5.14286, 12.0001
1069, 1, 5.14286, 12.0001
1070, 3, 5.14286, 12.0009
1071, 5, 5.14286, 12.0025
1072, 7, 5.14286, 12.0049
1073, 9, 5.14286, 12.0081
1074, 11, 5.14286, 12.0121
1075, 13, 5.14286, 12.0169
1076, 15, 5.14286, 12.0225
1077, -15, 8.57143, 12.0225
1078, -13, 8.57143, 12.0169
1079, -11, 8.57143, 12.0121
1080, -9, 8.57143, 12.0081
1081, -7, 8.57143, 12.0049
1082, -5, 8.57143, 12.0025
1083, -3, 8.57143, 12.0009
1084, -1, 8.57143, 12.0001
1085, 1, 8.57143, 12.0001
1086, 3, 8.57143, 12.0009
1087, 5, 8.57143, 12.0025
1088, 7, 8.57143, 12.0049
1089, 9, 8.57143, 12.0081
1090, 11, 8.57143, 12.0121
1091, 13, 8.57143, 12.0169
1092, 15, 8.57143, 12.0225
1093, -15, 12, 12.0225
1094, -13, 12, 12.0169
1095, -11, 12, 12.0121
1096, -9, 12, 12.0081
1097, -7, 12, 12.0049
1098, -5, 12, 12.0025
1099, -3, 12, 12.0009
1100, -1, 12, 12.0001
1101, 1, 12, 12.0001
1102, 3, 12, 12.0009
1103, 5, 12, 12.0025
1104, 7, 12, 12.0049
1105, 9, 12, 12.0081
1106, 11, 12, 12.0121
1107, 13, 12, 12.0169
1108, 15, 12, 12.0225
1109, -15, -12, 15
1110, -13, -12, 15
1111, -11, -12, 15
1112, -9, -12, 15
1113, -7, -12, 15
1114, -5, -12, 15
1115, -3, -12, 15
1116, -1, -12, 15
1117, 1, -12, 15
1118, 3, -12, 15
1119, 5, -12, 15
1120, 7, -12, 15
1121, 9, -12, 15
1122, 11, -12, 15
1123, 13, -12, 15
1124, 15, -12, 15
1125, -15, -8.57143, 15
1126, -13, -8.57143, 15
1127, -11, -8.57143, 15
1128, -9, -8.57143, 15
1129, -7, -8.57143, 15
1130, -5, -8.57143, 15
1131, -3, -8.57143, 15
1132, -1, -8.57143, 15
1133, 1, -8.57143, 15
1134, 3, -8.57143, 15
1135, 5, -8.57143, 15
1136, 7, -8.57143, 15
1137, 9, -8.57143, 15
1138, 11, -8.57143, 15
1139, 13, -8.57143, 15
1140, 15, -8.57143, 15
1141, -15, -5.14286, 15
1142, -13, -5.14286, 15
1143, -11, -5.14286, 15
1144, -9, -5.14286, 15
1145, -7, -5.14286, 15
1146, -5, -5.14286, 15
1147, -3, -5.14286, 15
1148, -1, -5.14286, 15
1149, 1, -5.14286, 15
1150, 3, -5.14286, 15
1151, 5, -5.14286, 15
1152, 7, -5.14286, 15
1153, 9, -5.14286, 15
1154, 11, -5.14286, 15
1155, 13, -5.14286, 15
1156, 15, -5.14286, 15
1157, -15, -1.71429, 15
1158, -13, -1.71429, 15
1159, -11, -1.71429, 15
1160, -9, -1.71429, 15
1161, -7, -1.71429, 15
1162, -5, -1.71429, 15
1163, -3, -1.71429, 15
1164, -1, -1.71429, 15
1165, 1, -1.71429, 15
1166, 3, -1.71429, 15
1167, 5, -1.71429, 15
1168, 7, -1.71429, 15
1169, 9, -1.71429, 15
1170, 11, -1.71429, 15
1171, 13, -1.71429, 15
1172, 15, -1.71429, 15
1173, -15, 1.71429, 15
1174, -13, 1.71429, 15
1175, -11, 1.71429, 15
1176, -9, 1.71429, 15
1177, -7, 1.71429, 15
1178, -5, 1.71429, 15
1179, -3, 1.71429, 15
1180, -1, 1.71429, 15
1181, 1, 1.71429, 15
1182, 3, 1.71429, 15
1183, 5, 1.71429, 15
1184, 7, 1.71429, 15
1185, 9, 1.71429, 15
1186, 11, 1.71429, 15
1187, 13, 1.71429, 15
1188, 15, 1.71429, 15
1189, -15, 5.14286, 15
1190, -13, 5.14286, 15
1191, -11, 5.14286, 15
1192, -9, 5.14286, 15
1193, -7, 5.14286, 15
1194, -5, 5.14286, 15
1195, -3, 5.14286, 15
1196, -1, 5.14286, 15
1197, 1, 5.14286, 15
1198, 3, 5.14286, 15
1199, 5, 5.14286, 15
1200, 7, 5.14286, 15
1201, 9, 5.14286, 15
1202, 11, 5.14286, 15
1203, 13, 5.14286, 15
1204, 15, 5.14286, 15
1205, -15, 8.57143, 15
1206, -13, 8.57143, 15
1207, -11, 8.57143, 15
1208, -9, 8.57143, 15
1209, -7, 8.57143, 15
1210, -5, 8.57143, 15
1211, -3, 8.57143, 15
1212, -1, 8.57143, 15
1213, 1, 8.57143, 15
1214, 3, 8.57143, 15
1215, 5, 8.57143, 15
1216, 7, 8.57143, 15
1217, 9, 8.57143, 15
1218, 11, 8.57143, 15
1219, 13, 8.57143, 15
1220, 15, 8.57143, 15
1221, -15, 12, 15
1222, -13, 12, 15
1223, -11, 12, 15
1224, -9, 12, 15
1225, -7, 12, 15
1226, -5, 12, 15
1227, -3, 12, 15
1228, -1, 12, 15
1229, 1, 12, 15
1230, 3, 12, 15
1231, 5, 12, 15
1232, 7, 12, 15
1233, 9, 12, 15
1234, 11, 12, 15
1235, 13, 12, 15
1236, 15, 12, 15
*ELEMENT, TYPE=C3D8I, ELSET=PLATE
1, 1, 2, 15, 14, 118, 119, 132, 131
2, 2, 3, 16, 15, 119, 120, 133, 132
3, 3, 4, 17, 16, 120, 121, 134, 133
4, 4, 5, 18, 17, 121, 122, 135, 134
5, 5, 6, 19, 18, 122, 123, 136, 135
6, 6, 7, 20, 19, 123, 124, 137, 136
7, 7, 8, 21, 20, 124, 125, 138, 137
8, 8, 9, 22, 21, 125, 126, 139, 138
9, 9, 10, 23, 22, 126, 127, 140, 139
10, 10, 11, 24, 23, 127, 128, 141, 140
11, 11, 12, 25, 24, 128, 129, 142, 141
12, 12, 13, 26, 25, 129, 130, 143, 142
13, 14, 15, 28, 27, 131, 132, 145, 144
14, 15, 16, 29, 28, 132, 133, 146, 145
15, 16, 17, 30, 29, 133, 134, 147, 146
16, 17, 18, 31, 30, 134, 135, 148, 147
17, 18, 19, 32, 31, 135, 136, 149, 148
18, 19, 20, 33, 32, 136, 137, 150, 149
19, 20, 21, 34, 33, 137, 138, 151, 150
20, 21, 22, 35, 34, 138, 139, 152, 151
21, 22, 23, 36, 35, 139, 140, 153, 152
22, 23, 24, 37, 36, 140, 141, 154, 153
23, 24, 25, 38, 37, 141, 142, 155, 154
24, 25, 26, 39, 38, 142, 143, 156, 155
25, 27, 28, 41, 40, 144, 145, 158, 157
26, 28, 29, 42, 41, 145, 146, 159, 158
27, 29, 30, 43, 42, 146, 147, 160, 159
28, 30, 31, 44, 43, 147, 148, 161, 160
29, 31, 32, 45, 44, 148, 149, 162, 161
30, 32, 33, 46, 45, 149, 150, 163, 162
31, 33, 34, 47, 46, 150, 151, 164, 163
32, 34, 35, 48, 47, 151, 152, 165, 164
33, 35, 36, 49, 48, 152, 153, 166, 165
34, 36, 37, 50, 49, 153, 154, 167, 166
35, 37, 38, 51, 50, 154, 155, 168, 167
36, 38, 39, 52, 51, 155, 156, 169, 168
37, 40, 41, 54, 53, 157, 158, 171, 170
38, 41, 42, 55, 54, 158, 159, 172, 171
39, 42, 43, 56, 55, 159, 160, 173, 172
40, 43, 44, 57, 56, 160, 161, 174, 173
41, 44, 45, 58, 57, 161, 162, 175, 174
42, 45, 46, 59, 58, 162, 163, 176, 175
43, 46, 47, 60, 59, 163, 164, 177, 176
44, 47, 48, 61, 60, 164, 165, 178, 177
45, 48, 49, 62, 61, 165, 166, 179, 178
46, 49, 50, 63, 62, 166, 167, 180, 179
47, 50, 51, 64, 63, 167, 168, 181, 180
48, 51, 52, 65, 64, 168, 169, 182, 181
49, 53, 54, 67, 66, 170, 171, 184, 183
50, 54, 55, 68, 67, 171, 172, 185, 184
51, 55, 56, 69, 68, 172, 173, 186, 185
52, 56, 57, 70, 69, 173, 174, 187, 186
53, 57, 58, 71, 70, 174, 175, 188, 187
54, 58, 59, 72, 71, 175, 176, 189, 188
55, 59, 60, 73, 72, 176, 177, 190, 189
56, 60, 61, 74, 73, 177, 178, 191, 190
57, 61, 62, 75, 74, 178, 179, 192, 191
58, 62, 63, 76, 75, 179, 180, 193, 192
59, 63, 64, 77, 76, 180, 181, 194, 193
60, 64, 65, 78, 77, 181, 182, 195, 194
61, 66, 67, 80, 79, 183, 184, 197, 196
62, 67, 68, 81, 80, 184, 185, 198, 197
63, 68, 69, 82, 81, 185, 186, 199, 198
64, 69, 70, 83, 82, 186, 187, 200, 199
65, 70, 71, 84, 83, 187, 188, 201, 200
66, 71, 72, 85, 84, 188, 189, 202, 201
67, 72, 73, 86, 85, 189, 190, 203, 202
68, 73, 74, 87, 86, 190, 191, 204, 203
69, 74, 75, 88, 87, 191, 192, 205, 204
70, 75, 76, 89, 88, 192, 193, 206, 205
71, 76, 77, 90, 89, 193, 194, 207, 206
72, 77, 78, 91, 90, 194, 195, 208, 207
73, 79, 80, 93, 92, 196, 197, 210, 209
74, 80, 81, 94, 93, 197, 198, 211, 210
75, 81, 82, 95, 94, 198, 199, 212, 211
76, 82, 83, 96, 95, 199, 200, 213, 212
77, 83, 84, 97, 96, 200, 201, 214, 213
78, 84, 85, 98, 97, 201, 202, 215, 214
79, 85, 86, 99, 98, 202, 203, 216, 215
80, 86, 87, 100, 99, 203, 204, 217, 216
81, 87, 88, 101, 100, 204, 205, 218, 217
82, 88, 89, 102, 101, 205, 206, 219, 218
83, 89, 90, 103, 102, 206, 207, 220, 219
84, 90, 91, 104, 103, 207, 208, 221, 220
85, 92, 93, 106, 105, 209, 210, 223, 222
86, 93, 94, 107, 106, 210, 211, 224, 223
87, 94, 95, 108, 107, 211, 212, 225, 224
88, 95, 96, 109, 108, 212, 213, 226, 225
89, 96, 97, 110, 109, 213, 214, 227, 226
90, 97, 98, 111, 110, 214, 215, 228, 227
91, 98, 99, 112, 111, 215, 216, 229, 228
92, 99, 100, 113, 112, 216, 217, 230, 229
93, 100, 101, 114, 113, 217, 218, 231, 230
94, 101, 102, 115, 114, 218, 219, 232, 231
95, 102, 103, 116, 115, 219, 220, 233, 232
96, 103, 104, 117, 116, 220, 221, 234, 233
97, 118, 119, 132, 131, 235, 236, 249, 248
98, 119, 120, 133, 132, 236, 237, 250, 249
99, 120, 121, 134, 133, 237, 238, 251, 250
100, 121, 122, 135, 134, 238, 239, 252, 251
101, 122, 123, 136, 135, 239, 240, 253, 252
102, 123, 124, 137, 136, 240, 241, 254, 253
103, 124, 125, 138, 137, 241, 242, 255, 254
104, 125, 126, 139, 138, 242, 243, 256, 255
105, 126, 127, 140, 139, 243, 244, 257, 256
106, 127, 128, 141, 140, 244, 245, 258, 257
107, 128, 129, 142, 141, 245, 246, 259, 258
108, 129, 130, 143, 142, 246, 247, 260, 259
109, 131, 132, 145, 144, 248, 249, 262, 261
110, 132, 133, 146, 145, 249, 250, 263, 262
111, 133, 134, 147, 146, 250, 251, 264, 263
112, 134, 135, 148, 147, 251, 252, 265, 264
113, 135, 136, 149, 148, 252, 253, 266, 265
114, 136, 137, 150, 149, 253, 254, 267, 266
115, 137, 138, 151, 150, 254, 255, 268, 267
116, 138, 139, 152, 151, 255, 256, 269, 268
117, 139, 140, 153, 152, 256, 257, 270, 269
118, 140, 141, 154, 153, 257, 258, 271, 270
119, 141, 142, 155, 154, 258, 259, 272, 271
120, 142, 143, 156, 155, 259, 260, 273, 272
121, 144, 145, 158, 157, 261, 262, 275, 274
122, 145, 146, 159, 158, 262, 263, 276, 275
123, 146, 147, 160, 159, 263, 264, 277, 276
124, 147, 148, 161, 160, 264, 265, 278, 277
125, 148, 149, 162, 161, 265, 266, 279, 278
126, 149, 150, 163, 162, 266, 267, 280, 279
127, 150, 151, 164, 163, 267, 268, 281, 280
128, 151, 152, 165, 164, 268, 269, 282, 281
129, 152, 153, 166, 165, 269, 270, 283, 282
130, 153, 154, 167, 166, 270, 271, 284, 283
131, 154, 155, 168, 167, 271, 272, 285, 284
132, 155, 156, 169, 168, 272, 273, 286, 285
133, 157, 158, 171, 170, 274, 275, 288, 287
134, 158, 159, 172, 171, 275, 276, 289, 288
135, 159, 160, 173, 172, 276, 277, 290, 289
136, 160, 161, 174, 173, 277, 278, 291, 290
137, 161, 162, 175, 174, 278, 279, 292, 291
138, 162, 163, 176, 175, 279, 280, 293, 292
139, 163, 164, 177, 176, 280, 281, 294, 293
140, 164, 165, 178, 177, 281, 282, 295, 294
141, 165, 166, 179, 178, 282, 283, 296, 295
142, 166, 167, 180, 179, 283, 284, 297, 296
143, 167, 168, 181, 180, 284, 285, 298, 297
144, 168, 169, 182, 181, 285, 286, 299, 298
145, 170, 171, 184, 183, 287, 288, 301, 300
146, 171, 172, 185, 184, 288, 289, 302, 301
147, 172, 173, 186, 185, 289, 290, 303, 302
148, 173, 174, 187, 186, 290, 291, 304, 303
149, 174, 175, 188, 187, 291, 292, 305, 304
150, 175, 176, 189, 188, 292, 293, 306, 305
151, 176, 177, 190, 189, 293, 294, 307, 306
152, 177, 178, 191, 190, 294, 295, 308, 307
153, 178, 179, 192, 191, 295, 296, 309, 308
154, 179, 180, 193, 192, 296, 297, 310, 309
155, 180, 181, 194, 193, 297, 298, 311, 310
156, 181, 182, 195, 194, 298, 299, 312, 311
157, 183, 184, 197, 196, 300, 301, 314, 313
158, 184, 185, 198, 197, 301, 302, 315, 314
159, 185, 186, 199, 198, 302, 303, 316, 315
160, 186, 187, 200, 199, 303, 304, 317, 316
161, 187, 188, 201, 200, 304, 305, 318, 317
162, 188, 189, 202, 201, 305, 306, 319, 318
163, 189, 190, 203, 202, 306, 307, 320, 319
164, 190, 191, 204, 203, 307, 308, 321, 320
165, 191, 192, 205, 204, 308, 309, 322, 321
166, 192, 193, 206, 205, 309, 310, 323, 322
167, 193, 194, 207, 206, 310, 311, 324, 323
168, 194, 195, 208, 207, 311, 312, 325, 324
169, 196, 197, 210, 209, 313, 314, 327, 326
170, 197, 198, 211, 210, 314, 315, 328, 327
171, 198, 199, 212, 211, 315, 316, 329, 328
172, 199, 200, 213, 212, 316, 317, 330, 329
173, 200, 201, 214, 213, 317, 318, 331, 330
174, 201, 202, 215, 214, 318, 319, 332, 331
175, 202, 203, 216, 215, 319, 320, 333, 332
176, 203, 204, 217, 216, 320, 321, 334, 333
177, 204, 205, 218, 217, 321, 322, 335, 334
178, 205, 206, 219, 218, 322, 323, 336, 335
179, 206, 207, 220, 219, 323, 324, 337, 336
180, 207, 208, 221, 220, 324, 325, 338, 337
181, 209, 210, 223, 222, 326, 327, 340, 339
182, 210, 211, 224, 223, 327, 328, 341, 340
183, 211, 212, 225, 224, 328, 329, 342, 341
184, 212, 213, 226, 225, 329, 330, 343, 342
185, 213, 214, 227, 226, 330, 331, 344, 343
186, 214, 215, 228, 227, 331, 332, 345, 344
187, 215, 216, 229, 228, 332, 333, 346, 345
188, 216, 217, 230, 229, 333, 334, 347, 346
189, 217, 218, 231, 230, 334, 335, 348, 347
190, 218, 219, 232, 231, 335, 336, 349, 348
191, 219, 220, 233, 232, 336, 337, 350, 349
192, 220, 221, 234, 233, 337, 338, 351, 350
193, 235, 236, 249, 248, 352, 353, 366, 365
194, 236, 237, 250, 249, 353, 354, 367, 366
195, 237, 238, 251, 250, 354, 355, 368, 367
196, 238, 239, 252, 251, 355, 356, 369, 368
197, 239, 240, 253, 252, 356, 357, 370, 369
198, 240, 241, 254, 253, 357, 358, 371, 370
199, 241, 242, 255, 254, 358, 359, 372, 371
200, 242, 243, 256, 255, 359, 360, 373, 372
201, 243, 244, 257, 256, 360, 361, 374, 373
202, 244, 245, 258, 257, 361, 362, 375, 374
203, 245, 246, 259, 258, 362, 363, 376, 375
204, 246, 247, 260, 259, 363, 364, 377, 376
205, 248, 249, 262, 261, 365, 366, 379, 378
206, 249, 250, 263, 262, 366, 367, 380, 379
207, 250, 251, 264, 263, 367, 368, 381, 380
208, 251, 252, 265, 264, 368, 369, 382, 381
209, 252, 253, 266, 265, 369, 370, 383, 382
210, 253, 254, 267, 266, 370, 371, 384, 383
211, 254, 255, 268, 267, 371, 372, 385, 384
212, 255, 256, 269, 268, 372, 373, 386, 385
213, 256, 257, 270, 269, 373, 374, 387, 386
214, 257, 258, 271, 270, 374, 375, 388, 387
215, 258, 259, 272, 271, 375, 376, 389, 388
216, 259, 260, 273, 272, 376, 377, 390, 389
217, 261, 262, 275, 274, 378, 379, 392, 391
218, 262, 263, 276, 275, 379, 380, 393, 392
219, 263, 264, 277, 276, 380, 381, 394, 393
220, 264, 265, 278, 277, 381, 382, 395, 394
221, 265, 266, 279, 278, 382, 383, 396, 395
222, 266, 267, 280, 279, 383, 384, 397, 396
223, 267, 268, 281, 280, 384, 385, 398, 397
224, 268, 269, 282, 281, 385, 386, 399, 398
225, 269, 270, 283, 282, 386, 387, 400, 399
226, 270, 271, 284, 283, 387, 388, 401, 400
227, 271, 272, 285, 284, 388, 389, 402, 401
228, 272, 273, 286, 285, 389, 390, 403, 402
229, 274, 275, 288, 287, 391, 392, 405, 404
230, 275, 276, 289, 288, 392, 393, 406, 405
231, 276, 277, 290, 289, 393, 394, 407, 406
232, 277, 278, 291, 290, 394, 395, 408, 407
233, 278, 279, 292, 291, 395, 396, 409, 408
234, 279, 280, 293, 292, 396, 397, 410, 409
235, 280, 281, 294, 293, 397, 398, 411, 410
236, 281, 282, 295, 294, 398, 399, 412, 411
237, 282, 283, 296, 295, 399, 400, 413, 412
238, 283, 284, 297, 296, 400, 401, 414, 413
239, 284, 285, 298, 297, 401, 402, 415, 414
240, 285, 286, 299, 298, 402, 403, 416, 415
241, 287, 288, 301, 300, 404, 405, 418, 417
242, 288, 289, 302, 301, 405, 406, 419, 418
243, 289, 290, 303, 302, 406, 407, 420, 419
244, 290, 291, 304, 303, 407, 408, 421, 420
245, 291, 292, 305, 304, 408, 409, 422, 421
246, 292, 293, 306, 305, 409, 410, 423, 422
247, 293, 294, 307, 306, 410, 411, 424, 423
248, 294, 295, 308, 307, 411, 412, 425, 424
249, 295, 296, 309, 308, 412, 413, 426, 425
250, 296, 297, 310, 309, 413, 414, 427, 426
251, 297, 298, 311, 310, 414, 415, 428, 427
252, 298, 299, 312, 311, 415, 416, 429, 428
253, 300, 301, 314, 313, 417, 418, 431, 430
254, 301, 302, 315, 314, 418, 419, 432, 431
255, 302, 303, 316, 315, 419, 420, 433, 432
256, 303, 304, 317, 316, 420, 421, 434, 433
257, 304, 305, 318, 317, 421, 422, 435, 434
258, 305, 306, 319, 318, 422, 423, 436, 435
259, 306, 307, 320, 319, 423, 424, 437, 436
260, 307, 308, 321, 320, 424, 425, 438, 437
261, 308, 309, 322, 321, 425, 426, 439, 438
262, 309, 310, 323, 322, 426, 427, 440, 439
263, 310, 311, 324, 323, 427, 428, 441, 440
264, 311, 312, 325, 324, 428, 429, 442, 441
265, 313, 314, 327, 326, 430, 431, 444, 443
266, 314, 315, 328, 327, 431, 432, 445, 444
267, 315, 316, 329, 328, 432, 433, 446, 445
268, 316, 317, 330, 329, 433, 434, 447, 446
269, 317, 318, 331, 330, 434, 435, 448, 447
270, 318, 319, 332, 331, 435, 436, 449, 448
271, 319, 320, 333, 332, 436, 437, 450, 449
272, 320, 321, 334, 333, 437, 438, 451, 450
273, 321, 322, 335, 334, 438, 439, 452, 451
274, 322, 323, 336, 335, 439, 440, 453, 452
275, 323, 324, 337, 336, 440, 441, 454, 453
276, 324, 325, 338, 337, 441, 442, 455, 454
277, 326, 327, 340, 339, 443, 444, 457, 456
278, 327, 328, 341, 340, 444, 445, 458, 457
279, 328, 329, 342, 341, 445, 446, 459, 458
280, 329, 330, 343, 342, 446, 447, 460, 459
281, 330, 331, 344, 343, 447, 448, 461, 460
282, 331, 332, 345, 344, 448, 449, 462, 461
283, 332, 333, 346, 345, 449, 450, 463, 462
284, 333, 334, 347, 346, 450, 451, 464, 463
285, 334, 335, 348, 347, 451, 452, 465, 464
286, 335, 336, 349, 348, 452, 453, 466, 465
287, 336, 337, 350, 349, 453, 454, 467, 466
288, 337, 338, 351, 350, 454, 455, 468, 467
*ELEMENT, TYPE=C3D8I, ELSET=ROCKER
289, 469, 470, 486, 485, 597, 598, 614, 613
290, 470, 471, 487, 486, 598, 599, 615, 614
291, 471, 472, 488, 487, 599, 600, 616, 615
292, 472, 473, 489, 488, 600, 601, 617, 616
293, 473, 474, 490, 489, 601, 602, 618, 617
294, 474, 475, 491, 490, 602, 603, 619, 618
295, 475, 476, 492, 491, 603, 604, 620, 619
296, 476, 477, 493, 492, 604, 605, 621, 620
297, 477, 478, 494, 493, 605, 606, 622, 621
298, 478, 479, 495, 494, 606, 607, 623, 622
299, 479, 480, 496, 495, 607, 608, 624, 623
300, 480, 481, 497, 496, 608, 609, 625, 624
301, 481, 482, 498, 497, 609, 610, 626, 625
302, 482, 483, 499, 498, 610, 611, 627, 626
303, 483, 484, 500, 499, 611, 612, 628, 627
304, 485, 486, 502, 501, 613, 614, 630, 629
305, 486, 487, 503, 502, 614, 615, 631, 630
306, 487, 488, 504, 503, 615, 616, 632, 631
307, 488, 489, 505, 504, 616, 617, 633, 632
308, 489, 490, 506, 505, 617, 618, 634, 633
309, 490, 491, 507, 506, 618, 619, 635, 634
310, 491, 492, 508, 507, 619, 620, 636, 635
311, 492, 493, 509, 508, 620, 621, 637, 636
312, 493, 494, 510, 509, 621, 622, 638, 637
313, 494, 495, 511, 510, 622, 623, 639, 638
314, 495, 496, 512, 511, 623, 624, 640, 639
315, 496, 497, 513, 512, 624, 625, 641, 640
316, 497, 498, 514, 513, 625, 626, 642, 641
317, 498, 499, 515, 514, 626, 627, 643, 642
318, 499, 500, 516, 515, 627, 628, 644, 643
319, 501, 502, 518, 517, 629, 630, 646, 645
320, 502, 503, 519, 518, 630, 631, 647, 646
321, 503, 504, 520, 519, 631, 632, 648, 647
322, 504, 505, 521, 520, 632, 633, 649, 648
323, 505, 506, 522, 521, 633, 634, 650, 649
324, 506, 507, 523, 522, 634, 635, 651, 650
325, 507, 508, 524, 523, 635, 636, 652, 651
326, 508, 509, 525, 524, 636, 637, 653, 652
327, 509, 510, 526, 525, 637, 638, 654, 653
328, 510, 511, 527, 526, 638, 639, 655, 654
329, 511, 512, 528, 527, 639, 640, 656, 655
330, 512, 513, 529, 528, 640, 641, 657, 656
331, 513, 514, 530, 529, 641, 642, 658, 657
332, 514, 515, 531, 530, 642, 643, 659, 658
333, 515, 516, 532, 531, 643, 644, 660, 659
334, 517, 518, 534, 533, 645, 646, 662, 661
335, 518, 519, 535, 534, 646, 647, 663, 662
336, 519, 520, 536, 535, 647, 648, 664, 663
337, 520, 521, 537, 536, 648, 649, 665, 664
338, 521, 522, 538, 537, 649, 650, 666, 665
339, 522, 523, 539, 538, 650, 651, 667, 666
340, 523, 524, 540, 539, 651, 652, 668, 667
341, 524, 525, 541, 540, 652, 653, 669, 668
342, 525, 526, 542, 541, 653, 654, 670, 669
343, 526, 527, 543, 542, 654, 655, 671, 670
344, 527, 528, 544, 543, 655, 656, 672, 671
345, 528, 529, 545, 544, 656, 657, 673, 672
346, 529, 530, 546, 545, 657, 658, 674, 673
347, 530, 531, 547, 546, 658, 659, 675, 674
348, 531, 532, 548, 547, 659, 660, 676, 675
349, 533, 534, 550, 549, 661, 662, 678, 677
350, 534, 535, 551, 550, 662, 663, 679, 678
351, 535, 536, 552, 551, 663, 664, 680, 679
352, 536, 537, 553, 552, 664, 665, 681, 680
353, 537, 538, 554, 553, 665, 666, 682, 681
354, 538, 539, 555, 554, 666, 667, 683, 682
355, 539, 540, 556, 555, 667, 668, 684, 683
356, 540, 541, 557, 556, 668, 669, 685, 684
357, 541, 542, 558, 557, 669, 670, 686, 685
358, 542, 543, 559, 558, 670, 671, 687, 686
359, 543, 544, 560, 559, 671, 672, 688, 687
360, 544, 545, 561, 560, 672, 673, 689, 688
361, 545, 546, 562, 561, 673, 674, 690, 689
362, 546, 547, 563, 562, 674, 675, 691, 690
363, 547, 548, 564, 563, 675, 676, 692, 691
364, 549, 550, 566, 565, 677, 678, 694, 693
365, 550, 551, 567, 566, 678, 679, 695, 694
366, 551, 552, 568, 567, 679, 680, 696, 695
367, 552, 553, 569, 568, 680, 681, 697, 696
368, 553, 554, 570, 569, 681, 682, 698, 697
369, 554, 555, 571, 570, 682, 683, 699, 698
370, 555, 556, 572, 571, 683, 684, 700, 699
371, 556, 557, 573, 572, 684, 685, 701, 700
372, 557, 558, 574, 573, 685, 686, 702, 701
373, 558, 559, 575, 574, 686, 687, 703, 702
374, 559, 560, 576, 575, 687, 688, 704, 703
375, 560, 561, 577, 576, 688, 689, 705, 704
376, 561, 562, 578, 577, 689, 690, 706, 705
377, 562, 563, 579, 578, 690, 691, 707, 706
378, 563, 564, 580, 579, 691, 692, 708, 707
379, 565, 566, 582, 581, 693, 694, 710, 709
380, 566, 567, 583, 582, 694, 695, 711, 710
381, 567, 568, 584, 583, 695, 696, 712, 711
382, 568, 569, 585, 584, 696, 697, 713, 712
383, 569, 570, 586, 585, 697, 698, 714, 713
384, 570, 571, 587, 586, 698, 699, 715, 714
385, 571, 572, 588, 587, 699, 700, 716, 715
386, 572, 573, 589, 588, 700, 701, 717, 716
387, 573, 574, 590, 589, 701, 702, 718, 717
388, 574, 575, 591, 590, 702, 703, 719, 718
389, 575, 576, 592, 591, 703, 704, 720, 719
390, 576, 577, 593, 592, 704, 705, 721, 720
391, 577, 578, 594, 593, 705, 706, 722, 721
392, 578, 579, 595, 594, 706, 707, 723, 722
393, 579, 580, 596, 595, 707, 708, 724, 723
394, 597, 598, 614, 613, 725, 726, 742, 741
395, 598, 599, 615, 614, 726, 727, 743, 742
396, 599, 600, 616, 615, 727, 728, 744, 743
397, 600, 601, 617, 616, 728, 729, 745, 744
398, 601, 602, 618, 617, 729, 730, 746, 745
399, 602, 603, 619, 618, 730, 731, 747, 746
400, 603, 604, 620, 619, 731, 732, 748, 747
401, 604, 605, 621, 620, 732, 733, 749, 748
402, 605, 606, 622, 621, 733, 734, 750, 749
403, 606, 607, 623, 622, 734, 735, 751, 750
404, 607, 608, 624, 623, 735, 736, 752, 751
405, 608, 609, 625, 624, 736, 737, 753, 752
406, 609, 610, 626, 625, 737, 738, 754, 753
407, 610, 611, 627, 626, 738, 739, 755, 754
408, 611, 612, 628, 627, 739, 740, 756, 755
409, 613, 614, 630, 629, 741, 742, 758, 757
410, 614, 615, 631, 630, 742, 743, 759, 758
411, 615, 616, 632, 631, 743, 744, 760, 759
412, 616, 617, 633, 632, 744, 745, 761, 760
413, 617, 618, 634, 633, 745, 746, 762, 761
414, 618, 619, 635, 634, 746, 747, 763, 762
415, 619, 620, 636, 635, 747, 748, 764, 763
416, 620, 621, 637, 636, 748, 749, 765, 764
417, 621, 622, 638, 637, 749, 750, 766, 765
418, 622, 623, 639, 638, 750, 751, 767, 766
419, 623, 624, 640, 639, 751, 752, 768, 767
420, 624, 625, 641, 640, 752, 753, 769, 768
421, 625, 626, 642, 641, 753, 754, 770, 769
422, 626, 627, 643, 642, 754, 755, 771, 770
423, 627, 628, 644, 643, 755, 756, 772, 771
424, 629, 630, 646, 645, 757, 758, 774, 773
425, 630, 631, 647, 646, 758, 759, 775, 774
426, 631, 632, 648, 647, 759, 760, 776, 775
427, 632, 633, 649, 648, 760, 761, 777, 776
428, 633, 634, 650, 649, 761, 762, 778, 777
429, 634, 635, 651, 650, 762, 763, 779, 778
430, 635, 636, 652, 651, 763, 764, 780, 779
431, 636, 637, 653, 652, 764, 765, 781, 780
432, 637, 638, 654, 653, 765, 766, 782, 781
433, 638, 639, 655, 654, 766, 767, 783, 782
434, 639, 640, 656, 655, 767, 768, 784, 783
435, 640, 641, 657, 656, 768, 769, 785, 784
436, 641, 642, 658, 657, 769, 770, 786, 785
437, 642, 643, 659, 658, 770, 771, 787, 786
438, 643, 644, 660, 659, 771, 772, 788, 787
439, 645, 646, 662, 661, 773, 774, 790, 789
440, 646, 647, 663, 662, 774, 775, 791, 790
441, 647, 648, 664, 663, 775, 776, 792, 791
442, 648, 649, 665, 664, 776, 777, 793, 792
443, 649, 650, 666, 665, 777, 778, 794, 793
444, 650, 651, 667, 666, 778, 779, 795, 794
445, 651, 652, 668, 667, 779, 780, 796, 795
446, 652, 653, 669, 668, 780, 781, 797, 796
447, 653, 654, 670, 669, 781, 782, 798, 797
448, 654, 655, 671, 670, 782, 783, 799, 798
449, 655, 656, 672, 671, 783, 784, 800, 799
450, 656, 657, 673, 672, 784, 785, 801, 800
451, 657, 658, 674, 673, 785, 786, 802, 801
452, 658, 659, 675, 674, 786, 787, 803, 802
453, 659, 660, 676, 675, 787, 788, 804, 803
454, 661, 662, 678, 677, 789, 790, 806, 805
455, 662, 663, 679, 678, 790, 791, 807, 806
456, 663, 664, 680, 679, 791, 792, 808, 807
457, 664, 665, 681, 680, 792, 793, 809, 808
458, 665, 666, 682, 681, 793, 794, 810, 809
459, 666, 667, 683, 682, 794, 795, 811, 810
460, 667, 668, 684, 683, 795, 796, 812, 811
461, 668, 669, 685, 684, 796, 797, 813, 812
462, 669, 670, 686, 685, 797, 798, 814, 813
463, 670, 671, 687, 686, 798, 799, 815, 814
464, 671, 672, 688, 687, 799, 800, 816, 815
465, 672, 673, 689, 688, 800, 801, 817, 816
466, 673, 674, 690, 689, 801, 802, 818, 817
467, 674, 675, 691, 690, 802, 803, 819, 818
468, 675, 676, 692, 691, 803, 804, 820, 819
469, 677, 678, 694, 693, 805, 806, 822, 821
470, 678, 679, 695, 694, 806, 807, 823, 822
471, 679, 680, 696, 695, 807, 808, 824, 823
472, 680, 681, 697, 696, 808, 809, 825, 824
473, 681, 682, 698, 697, 809, 810, 826, 825
474, 682, 683, 699, 698, 810, 811, 827, 826
475, 683, 684, 700, 699, 811, 812, 828, 827
476, 684, 685, 701, 700, 812, 813, 829, 828
477, 685, 686, 702, 701, 813, 814, 830, 829
478, 686, 687, 703, 702, 814, 815, 831, 830
479, 687, 688, 704, 703, 815, 816, 832, 831
480, 688, 689, 705, 704, 816, 817, 833, 832
481, 689, 690, 706, 705, 817, 818, 834, 833
482, 690, 691, 707, 706, 818, 819, 835, 834
483, 691, 692, 708, 707, 819, 820, 836, 835
484, 693, 694, 710, 709, 821, 822, 838, 837
485, 694, 695, 711, 710, 822, 823, 839, 838
486, 695, 696, 712, 711, 823, 824, 840, 839
487, 696, 697, 713, 712, 824, 825, 841, 840
488, 697, 698, 714, 713, 825, 826, 842, 841
489, 698, 699, 715, 714, 826, 827, 843, 842
490, 699, 700, 716, 715, 827, 828, 844, 843
491, 700, 701, 717, 716, 828, 829, 845, 844
492, 701, 702, 718, 717, 829, 830, 846, 845
493, 702, 703, 719, 718, 830, 831, 847, 846
494, 703, 704, 720, 719, 831, 832, 848, 847
495, 704, 705, 721, 720, 832, 833, 849, 848
496, 705, 706, 722, 721, 833, 834, 850, 849
497, 706, 707, 723, 722, 834, 835, 851, 850
498, 707, 708, 724, 723, 835, 836, 852, 851
499, 725, 726, 742, 741, 853, 854, 870, 869
500, 726, 727, 743, 742, 854, 855, 871, 870
501, 727, 728, 744, 743, 855, 856, 872, 871
502, 728, 729, 745, 744, 856, 857, 873, 872
503, 729, 730, 746, 745, 857, 858, 874, 873
504, 730, 731, 747, 746, 858, 859, 875, 874
505, 731, 732, 748, 747, 859, 860, 876, 875
506, 732, 733, 749, 748, 860, 861, 877, 876
507, 733, 734, 750, 749, 861, 862, 878, 877
508, 734, 735, 751, 750, 862, 863, 879, 878
509, 735, 736, 752, 751, 863, 864, 880, 879
510, 736, 737, 753, 752, 864, 865, 881, 880
511, 737, 738, 754, 753, 865, 866, 882, 881
512, 738, 739, 755, 754, 866, 867, 883, 882
513, 739, 740, 756, 755, 867, 868, 884, 883
514, 741, 742, 758, 757, 869, 870, 886, 885
515, 742, 743, 759, 758, 870, 871, 887, 886
516, 743, 744, 760, 759, 871, 872, 888, 887
517, 744, 745, 761, 760, 872, 873, 889, 888
518, 745, 746, 762, 761, 873, 874, 890, 889
519, 746, 747, 763, 762, 874, 875, 891, 890
520, 747, 748, 764, 763, 875, 876, 892, 891
521, 748, 749, 765, 764, 876, 877, 893, 892
522, 749, 750, 766, 765, 877, 878, 894, 893
523, 750, 751, 767, 766, 878, 879, 895, 894
524, 751, 752, 768, 767, 879, 880, 896, 895
525, 752, 753, 769, 768, 880, 881, 897, 896
526, 753, 754, 770, 769, 881, 882, 898, 897
527, 754, 755, 771, 770, 882, 883, 899, 898
528, 755, 756, 772, 771, 883, 884, 900, 899
529, 757, 758, 774, 773, 885, 886, 902, 901
530, 758, 759, 775, 774, 886, 887, 903, 902
531, 759, 760, 776, 775, 887, 888, 904, 903
532, 760, 761, 777, 776, 888, 889, 905, 904
533, 761, 762, 778, 777, 889, 890, 906, 905
534, 762, 763, 779, 778, 890, 891, 907, 906
535, 763, 764, 780, 779, 891, 892, 908, 907
536, 764, 765, 781, 780, 892, 893, 909, 908
537, 765, 766, 782, 781, 893, 894, 910, 909
538, 766, 767, 783, 782, 894, 895, 911, 910
539, 767, 768, 784, 783, 895, 896, 912, 911
540, 768, 769, 785, 784, 896, 897, 913, 912
541, 769, 770, 786, 785, 897, 898, 914, 913
542, 770, 771, 787, 786, 898, 899, 915, 914
543, 771, 772, 788, 787, 899, 900, 916, 915
544, 773, 774, 790, 789, 901, 902, 918, 917
545, 774, 775, 791, 790, 902, 903, 919, 918
546, 775, 776, 792, 791, 903, 904, 920, 919
547, 776, 777, 793, 792, 904, 905, 921, 920
548, 777, 778, 794, 793, 905, 906, 922, 921
549, 778, 779, 795, 794, 906, 907, 923, 922
550, 779, 780, 796, 795, 907, 908, 924, 923
551, 780, 781, 797, 796, 908, 909, 925, 924
552, 781, 782, 798, 797, 909, 910, 926, 925
553, 782, 783, 799, 798, 910, 911, 927, 926
554, 783, 784, 800, 799, 911, 912, 928, 927
555, 784, 785, 801, 800, 912, 913, 929, 928
556, 785, 786, 802, 801, 913, 914, 930, 929
557, 786, 787, 803, 802, 914, 915, 931, 930
558, 787, 788, 804, 803, 915, 916, 932, 931
559, 789, 790, 806, 805, 917, 918, 934, 933
560, 790, 791, 807, 806, 918, 919, 935, 934
561, 791, 792, 808, 807, 919, 920, 936, 935
562, 792, 793, 809, 808, 920, 921, 937, 936
563, 793, 794, 810, 809, 921, 922, 938, 937
564, 794, 795, 811, 810, 922, 923, 939, 938
565, 795, 796, 812, 811, 923, 924, 940, 939
566, 796, 797, 813, 812, 924, 925, 941, 940
567, 797, 798, 814, 813, 925, 926, 942, 941
568, 798, 799, 815, 814, 926, 927, 943, 942
569, 799, 800, 816, 815, 927, 928, 944, 943
570, 800, 801, 817, 816, 928, 929, 945, 944
571, 801, 802, 818, 817, 929, 930, 946, 945
572, 802, 803, 819, 818, 930, 931, 947, 946
573, 803, 804, 820, 819, 931, 932, 948, 947
574, 805, 806, 822, 821, 933, 934, 950, 949
575, 806, 807, 823, 822, 934, 935, 951, 950
576, 807, 808, 824, 823, 935, 936, 952, 951
577, 808, 809, 825, 824, 936, 937, 953, 952
578, 809, 810, 826, 825, 937, 938, 954, 953
579, 810, 811, 827, 826, 938, 939, 955, 954
580, 811, 812, 828, 827, 939, 940, 956, 955
581, 812, 813, 829, 828, 940, 941, 957, 956
582, 813, 814, 830, 829, 941, 942, 958, 957
583, 814, 815, 831, 830, 942, 943, 959, 958
584, 815, 816, 832, 831, 943, 944, 960, 959
585, 816, 817, 833, 832, 944, 945, 961, 960
586, 817, 818, 834, 833, 945, 946, 962, 961
587, 818, 819, 835, 834, 946, 947, 963, 962
588, 819, 820, 836, 835, 947, 948, 964, 963
589, 821, 822, 838, 837, 949, 950, 966, 965
590, 822, 823, 839, 838, 950, 951, 967, 966
591, 823, 824, 840, 839, 951, 952, 968, 967
592, 824, 825, 841, 840, 952, 953, 969, 968
593, 825, 826, 842, 841, 953, 954, 970, 969
594, 826, 827, 843, 842, 954, 955, 971, 970
595, 827, 828, 844, 843, 955, 956, 972, 971
596, 828, 829, 845, 844, 956, 957, 973, 972
597, 829, 830, 846, 845, 957, 958, 974, 973
598, 830, 831, 847, 846, 958, 959, 975, 974
599, 831, 832, 848, 847, 959, 960, 976, 975
600, 832, 833, 849, 848, 960, 961, 977, 976
601, 833, 834, 850, 849, 961, 962, 978, 977
602, 834, 835, 851, 850, 962, 963, 979, 978
603, 835, 836, 852, 851, 963, 964, 980, 979
604, 853, 854, 870, 869, 981, 982, 998, 997
605, 854, 855, 871, 870, 982, 983, 999, 998
606, 855, 856, 872, 871, 983, 984, 1000, 999
607, 856, 857, 873, 872, 984, 985, 1001, 1000
608, 857, 858, 874, 873, 985, 986, 1002, 1001
609, 858, 859, 875, 874, 986, 987, 1003, 1002
610, 859, 860, 876, 875, 987, 988, 1004, 1003
611, 860, 861, 877, 876, 988, 989, 1005, 1004
612, 861, 862, 878, 877, 989, 990, 1006, 1005
613, 862, 863, 879, 878, 990, 991, 1007, 1006
614, 863, 864, 880, 879, 991, 992, 1008, 1007
615, 864, 865, 881, 880, 992, 993, 1009, 1008
616, 865, 866, 882, 881, 993, 994, 1010, 1009
617, 866, 867, 883, 882, 994, 995, 1011, 1010
618, 867, 868, 884, 883, 995, 996, 1012, 1011
619, 869, 870, 886, 885, 997, 998, 1014, 1013
620, 870, 871, 887, 886, 998, 999, 1015, 1014
621, 871, 872, 888, 887, 999, 1000, 1016, 1015
622, 872, 873, 889, 888, 1000, 1001, 1017, 1016
623, 873, 874, 890, 889, 1001, 1002, 1018, 1017
624, 874, 875, 891, 890, 1002, 1003, 1019, 1018
625, 875, 876, 892, 891, 1003, 1004, 1020, 1019
626, 876, 877, 893, 892, 1004, 1005, 1021, 1020
627, 877, 878, 894, 893, 1005, 1006, 1022, 1021
628, 878, 879, 895, 894, 1006, 1007, 1023, 1022
629, 879, 880, 896, 895, 1007, 1008, 1024, 1023
630, 880, 881, 897, 896, 1008, 1009, 1025, 1024
631, 881, 882, 898, 897, 1009, 1010, 1026, 1025
632, 882, 883, 899, 898, 1010, 1011, 1027, 1026
633, 883, 884, 900, 899, 1011, 1012, 1028, 1027
634, 885, 886, 902, 901, 1013, 1014, 1030, 1029
635, 886, 887, 903, 902, 1014, 1015, 1031, 1030
636, 887, 888, 904, 903, 1015, 1016, 1032, 1031
637, 888, 889, 905, 904, 1016, 1017, 1033, 1032
638, 889, 890, 906, 905, 1017, 1018, 1034, 1033
639, 890, 891, 907, 906, 1018, 1019, 1035, 1034
640, 891, 892, 908, 907, 1019, 1020, 1036, 1035
641, 892, 893, 909, 908, 1020, 1021, 1037, 1036
642, 893, 894, 910, 909, 1021, 1022, 1038, 1037
643, 894, 895, 911, 910, 1022, 1023, 1039, 1038
644, 895, 896, 912, 911, 1023, 1024, 1040, 1039
645, 896, 897, 913, 912, 1024, 1025, 1041, 1040
646, 897, 898, 914, 913, 1025, 1026, 1042, 1041
647, 898, 899, 915, 914, 1026, 1027, 1043, 1042
648, 899, 900, 916, 915, 1027, 1028, 1044, 1043
649, 901, 902, 918, 917, 1029, 1030, 1046, 1045
650, 902, 903, 919, 918, 1030, 1031, 1047, 1046
651, 903, 904, 920, 919, 1031, 1032, 1048, 1047
652, 904, 905, 921, 920, 1032, 1033, 1049, 1048
653, 905, 906, 922, 921, 1033, 1034, 1050, 1049
654, 906, 907, 923, 922, 1034, 1035, 1051, 1050
655, 907, 908, 924, 923, 1035, 1036, 1052, 1051
656, 908, 909, 925, 924, 1036, 1037, 1053, 1052
657, 909, 910, 926, 925, 1037, 1038, 1054, 1053
658, 910, 911, 927, 926, 1038, 1039, 1055, 1054
659, 911, 912, 928, 927, 1039, 1040, 1056, 1055
660, 912, 913, 929, 928, 1040, 1041, 1057, 1056
661, 913, 914, 930, 929, 1041, 1042, 1058, 1057
662, 914, 915, 931, 930, 1042, 1043, 1059, 1058
663, 915, 916, 932, 931, 1043, 1044, 1060, 1059
664, 917, 918, 934, 933, 1045, 1046, 1062, 1061
665, 918, 919, 935, 934, 1046, 1047, 1063, 1062
666, 919, 920, 936, 935, 1047, 1048, 1064, 1063
667, 920, 921, 937, 936, 1048, 1049, 1065, 1064
668, 921, 922, 938, 937, 1049, 1050, 1066, 1065
669, 922, 923, 939, 938, 1050, 1051, 1067, 1066
670, 923, 924, 940, 939, 1051, 1052, 1068, 1067
671, 924, 925, 941, 940, 1052, 1053, 1069, 1068
672, 925, 926, 942, 941, 1053, 1054, 1070, 1069
673, 926, 927, 943, 942, 1054, 1055, 1071, 1070
674, 927, 928, 944, 943, 1055, 1056, 1072, 1071
675, 928, 929, 945, 944, 1056, 1057, 1073, 1072
676, 929, 930, 946, 945, 1057, 1058, 1074, 1073
677, 930, 931, 947, 946, 1058, 1059, 1075, 1074
678, 931, 932, 948, 947, 1059, 1060, 1076, 1075
679, 933, 934, 950, 949, 1061, 1062, 1078, 1077
680, 934, 935, 951, 950, 1062, 1063, 1079, 1078
681, 935, 936, 952, 951, 1063, 1064, 1080, 1079
682, 936, 937, 953, 952, 1064, 1065, 1081, 1080
683, 937, 938, 954, 953, 1065, 1066, 1082, 1081
684, 938, 939, 955, 954, 1066, 1067, 1083, 1082
685, 939, 940, 956, 955, 1067, 1068, 1084, 1083
686, 940, 941, 957, 956, 1068, 1069, 1085, 1084
687, 941, 942, 958, 957, 1069, 1070, 1086, 1085
688, 942, 943, 959, 958, 1070, 1071, 1087, 1086
689, 943, 944, 960, 959, 1071, 1072, 1088, 1087
690, 944, 945, 961, 960, 1072, 1073, 1089, 1088
691, 945, 946, 962, 961, 1073, 1074, 1090, 1089
692, 946, 947, 963, 962, 1074, 1075, 1091, 1090
693, 947, 948, 964, 963, 1075, 1076, 1092, 1091
694, 949, 950, 966, 965, 1077, 1078, 1094, 1093
695, 950, 951, 967, 966, 1078, 1079, 1095, 1094
696, 951, 952, 968, 967, 1079, 1080, 1096, 1095
697, 952, 953, 969, 968, 1080, 1081, 1097, 1096
698, 953, 954, 970, 969, 1081, 1082, 1098, 1097
699, 954, 955, 971, 970, 1082, 1083, 1099, 1098
700, 955, 956, 972, 971, 1083, 1084, 1100, 1099
701, 956, 957, 973, 972, 1084, 1085, 1101, 1100
702, 957, 958, 974, 973, 1085, 1086, 1102, 1101
703, 958, 959, 975, 974, 1086, 1087, 1103, 1102
704, 959, 960, 976, 975, 1087, 1088, 1104, 1103
705, 960, 961, 977, 976, 1088, 1089, 1105, 1104
706, 961, 962, 978, 977, 1089, 1090, 1106, 1105
707, 962, 963, 979, 978, 1090, 1091, 1107, 1106
708, 963, 964, 980, 979, 1091, 1092, 1108, 1107
709, 981, 982, 998, 997, 1109, 1110, 1126, 1125
710, 982, 983, 999, 998, 1110, 1111, 1127, 1126
711, 983, 984, 1000, 999, 1111, 1112, 1128, 1127
712, 984, 985, 1001, 1000, 1112, 1113, 1129, 1128
713, 985, 986, 1002, 1001, 1113, 1114, 1130, 1129
714, 986, 987, 1003, 1002, 1114, 1115, 1131, 1130
715, 987, 988, 1004, 1003, 1115, 1116, 1132, 1131
716, 988, 989, 1005, 1004, 1116, 1117, 1133, 1132
717, 989, 990, 1006, 1005, 1117, 1118, 1134, 1133
718, 990, 991, 1007, 1006, 1118, 1119, 1135, 1134
719, 991, 992, 1008, 1007, 1119, 1120, 1136, 1135
720, 992, 993, 1009, 1008, 1120, 1121, 1137, 1136
721, 993, 994, 1010, 1009, 1121, 1122, 1138, 1137
722, 994, 995, 1011, 1010, 1122, 1123, 1139, 1138
723, 995, 996, 1012, 1011, 1123, 1124, 1140, 1139
724, 997, 998, 1014, 1013, 1125, 1126, 1142, 1141
725, 998, 999, 1015, 1014, 1126, 1127, 1143, 1142
726, 999, 1000, 1016, 1015, 1127, 1128, 1144, 1143
727, 1000, 1001, 1017, 1016, 1128, 1129, 1145, 1144
728, 1001, 1002, 1018, 1017, 1129, 1130, 1146, 1145
729, 1002, 1003, 1019, 1018, 1130, 1131, 1147, 1146
730, 1003, 1004, 1020, 1019, 1131, 1132, 1148, 1147
731, 1004, 1005, 1021, 1020, 1132, 1133, 1149, 1148
732, 1005, 1006, 1022, 1021, 1133, 1134, 1150, 1149
733, 1006, 1007, 1023, 1022, 1134, 1135, 1151, 1150
734, 1007, 1008, 1024, 1023, 1135, 1136, 1152, 1151
735, 1008, 1009, 1025, 1024, 1136, 1137, 1153, 1152
736, 1009, 1010, 1026, 1025, 1137, 1138, 1154, 1153
737, 1010, 1011, 1027, 1026, 1138, 1139, 1155, 1154
738, 1011, 1012, 1028, 1027, 1139, 1140, 1156, 1155
739, 1013, 1014, 1030, 1029, 1141, 1142, 1158, 1157
740, 1014, 1015, 1031, 1030, 1142, 1143, 1159, 1158
741, 1015, 1016, 1032, 1031, 1143, 1144, 1160, 1159
742, 1016, 1017, 1033, 1032, 1144, 1145, 1161, 1160
743, 1017, 1018, 1034, 1033, 1145, 1146, 1162, 1161
744, 1018, 1019, 1035, 1034, 1146, 1147, 1163, 1162
745, 1019, 1020, 1036, 1035, 1147, 1148, 1164, 1163
746, 1020, 1021, 1037, 1036, 1148, 1149, 1165, 1164
747, 1021, 1022, 1038, 1037, 1149, 1150, 1166, 1165
748, 1022, 1023, 1039, 1038, 1150, 1151, 1167, 1166
749, 1023, 1024, 1040, 1039, 1151, 1152, 1168, 1167
750, 1024, 1025, 1041, 1040, 1152, 1153, 1169, 1168
751, 1025, 1026, 1042, 1041, 1153, 1154, 1170, 1169
752, 1026, 1027, 1043, 1042, 1154, 1155, 1171, 1170
753, 1027, 1028, 1044, 1043, 1155, 1156, 1172, 1171
754, 1029, 1030, 1046, 1045, 1157, 1158, 1174, 1173
755, 1030, 1031, 1047, 1046, 1158, 1159, 1175, 1174
756, 1031, 1032, 1048, 1047, 1159, 1160, 1176, 1175
757, 1032, 1033, 1049, 1048, 1160, 1161, 1177, 1176
758, 1033, 1034, 1050, 1049, 1161, 1162, 1178, 1177
759, 1034, 1035, 1051, 1050, 1162, 1163, 1179, 1178
760, 1035, 1036, 1052, 1051, 1163, 1164, 1180, 1179
761, 1036, 1037, 1053, 1052, 1164, 1165, 1181, 1180
762, 1037, 1038, 1054, 1053, 1165, 1166, 1182, 1181
763, 1038, 1039, 1055, 1054, 1166, 1167, 1183, 1182
764, 1039, 1040, 1056, 1055, 1167, 1168, 1184, 1183
765, 1040, 1041, 1057, 1056, 1168, 1169, 1185, 1184
766, 1041, 1042, 1058, 1057, 1169, 1170, 1186, 1185
767, 1042, 1043, 1059, 1058, 1170, 1171, 1187, 1186
768, 1043, 1044, 1060, 1059, 1171, 1172, 1188, 1187
769, 1045, 1046, 1062, 1061, 1173, 1174, 1190, 1189
770, 1046, 1047, 1063, 1062, 1174, 1175, 1191, 1190
771, 1047, 1048, 1064, 1063, 1175, 1176, 1192, 1191
772, 1048, 1049, 1065, 1064, 1176, 1177, 1193, 1192
773, 1049, 1050, 1066, 1065, 1177, 1178, 1194, 1193
774, 1050, 1051, 1067, 1066, 1178, 1179, 1195, 1194
775, 1051, 1052, 1068, 1067, 1179, 1180, 1196, 1195
776, 1052, 1053, 1069, 1068, 1180, 1181, 1197, 1196
777, 1053, 1054, 1070, 1069, 1181, 1182, 1198, 1197
778, 1054, 1055, 1071, 1070, 1182, 1183, 1199, 1198
779, 1055, 1056, 1072, 1071, 1183, 1184, 1200, 1199
780, 1056, 1057, 1073, 1072, 1184, 1185, 1201, 1200
781, 1057, 1058, 1074, 1073, 1185, 1186, 1202, 1201
782, 1058, 1059, 1075, 1074, 1186, 1187, 1203, 1202
783, 1059, 1060, 1076, 1075, 1187, 1188, 1204, 1203
784, 1061, 1062, 1078, 1077, 1189, 1190, 1206, 1205
785, 1062, 1063, 1079, 1078, 1190, 1191, 1207, 1206
786, 1063, 1064, 1080, 1079, 1191, 1192, 1208, 1207
787, 1064, 1065, 1081, 1080, 1192, 1193, 1209, 1208
788, 1065, 1066, 1082, 1081, 1193, 1194, 1210, 1209
789, 1066, 1067, 1083, 1082, 1194, 1195, 1211, 1210
790, 1067, 1068, 1084, 1083, 1195, 1196, 1212, 1211
791, 1068, 1069, 1085, 1084, 1196, 1197, 1213, 1212
792, 1069, 1070, 1086, 1085, 1197, 1198, 1214, 1213
793, 1070, 1071, 1087, 1086, 1198, 1199, 1215, 1214
794, 1071, 1072, 1088, 1087, 1199, 1200, 1216, 1215
795, 1072, 1073, 1089, 1088, 1200, 1201, 1217, 1216
796, 1073, 1074, 1090, 1089, 1201, 1202, 1218, 1217
797, 1074, 1075, 1091, 1090, 1202, 1203, 1219, 1218
798, 1075, 1076, 1092, 1091, 1203, 1204, 1220, 1219
799, 1077, 1078, 1094, 1093, 1205, 1206, 1222, 1221
800, 1078, 1079, 1095, 1094, 1206, 1207, 1223, 1222
801, 1079, 1080, 1096, 1095, 1207, 1208, 1224, 1223
802, 1080, 1081, 1097, 1096, 1208, 1209, 1225, 1224
803, 1081, 1082, 1098, 1097, 1209, 1210, 1226, 1225
804, 1082, 1083, 1099, 1098, 1210, 1211, 1227, 1226
805, 1083, 1084, 1100, 1099, 1211, 1212, 1228, 1227
806, 1084, 1085, 1101, 1100, 1212, 1213, 1229, 1228
807, 1085, 1086, 1102, 1101, 1213, 1214, 1230, 1229
808, 1086, 1087, 1103, 1102, 1214, 1215, 1231, 1230
809, 1087, 1088, 1104, 1103, 1215, 1216, 1232, 1231
810, 1088, 1089, 1105, 1104, 1216, 1217, 1233, 1232
811, 1089, 1090, 1106, 1105, 1217, 1218, 1234, 1233
812, 1090, 1091, 1107, 1106, 1218, 1219, 1235, 1234
813, 1091, 1092, 1108, 1107, 1219, 1220, 1236, 1235
*NSET, NSET=NBOTTOM
1, 2, 3, 4, 5, 6, 7, 8, 9, 10, 11, 12, 13, 14, 15, 16,
17, 18, 19, 20, 21, 22, 23, 24, 25, 26, 27, 28, 29, 30, 31, 32,
33, 34, 35, 36, 37, 38, 39, 40, 41, 42, 43, 44, 45, 46, 47, 48,
49, 50, 51, 52, 53, 54, 55, 56, 57, 58, 59, 60, 61, 62, 63, 64,
65, 66, 67, 68, 69, 70, 71, 72, 73, 74, 75, 76, 77, 78, 79, 80,
81, 82, 83, 84, 85, 86, 87, 88, 89, 90, 91, 92, 93, 94, 95, 96,
97, 98, 99, 100, 101, 102, 103, 104, 105, 106, 107, 108, 109, 110, 111, 112,
113, 114, 115, 116, 117
*NSET, NSET=NTOP
1109, 1110, 1111, 1112, 1113, 1114, 1115, 1116, 1117, 1118, 1119, 1120, 1121, 1122, 1123, 1124,
1125, 1126, 1127, 1128, 1129, 1130, 1131, 1132, 1133, 1134, 1135, 1136, 1137, 1138, 1139, 1140,
1141, 1142, 1143, 1144, 1145, 1146, 1147, 1148, 1149, 1150, 1151, 1152, 1153, 1154, 1155, 1156,
1157, 1158, 1159, 1160, 1161, 1162, 1163, 1164, 1165, 1166, 1167, 1168, 1169, 1170, 1171, 1172,
1173, 1174, 1175, 1176, 1177, 1178, 1179, 1180, 1181, 1182, 1183, 1184, 1185, 1186, 1187, 1188,
1189, 1190, 1191, 1192, 1193, 1194, 1195, 1196, 1197, 1198, 1199, 1200, 1201, 1202, 1203, 1204,
1205, 1206, 1207, 1208, 1209, 1210, 1211, 1212, 1213, 1214, 1215, 1216, 1217, 1218, 1219, 1220,
1221, 1222, 1223, 1224, 1225, 1226, 1227, 1228, 1229, 1230, 1231, 1232, 1233, 1234, 1235, 1236
*SURFACE, NAME=PLATE_TOP
193, S2
194, S2
195, S2
196, S2
197, S2
198, S2
199, S2
200, S2
201, S2
202, S2
203, S2
204, S2
205, S2
206, S2
207, S2
208, S2
209, S2
210, S2
211, S2
212, S2
213, S2
214, S2
215, S2
216, S2
217, S2
218, S2
219, S2
220, S2
221, S2
222, S2
223, S2
224, S2
225, S2
226, S2
227, S2
228, S2
229, S2
230, S2
231, S2
232, S2
233, S2
234, S2
235, S2
236, S2
237, S2
238, S2
239, S2
240, S2
241, S2
242, S2
243, S2
244, S2
245, S2
246, S2
247, S2
248, S2
249, S2
250, S2
251, S2
252, S2
253, S2
254, S2
255, S2
256, S2
257, S2
258, S2
259, S2
260, S2
261, S2
262, S2
263, S2
264, S2
265, S2
266, S2
267, S2
268, S2
269, S2
270, S2
271, S2
272, S2
273, S2
274, S2
275, S2
276, S2
277, S2
278, S2
279, S2
280, S2
281, S2
282, S2
283, S2
284, S2
285, S2
286, S2
287, S2
288, S2
*SURFACE, NAME=ROCKER_BOTTOM
289, S1
290, S1
291, S1
292, S1
293, S1
294, S1
295, S1
296, S1
297, S1
298, S1
299, S1
300, S1
301, S1
302, S1
303, S1
304, S1
305, S1
306, S1
307, S1
308, S1
309, S1
310, S1
311, S1
312, S1
313, S1
314, S1
315, S1
316, S1
317, S1
318, S1
319, S1
320, S1
321, S1
322, S1
323, S1
324, S1
325, S1
326, S1
327, S1
328, S1
329, S1
330, S1
331, S1
332, S1
333, S1
334, S1
335, S1
336, S1
337, S1
338, S1
339, S1
340, S1
341, S1
342, S1
343, S1
344, S1
345, S1
346, S1
347, S1
348, S1
349, S1
350, S1
351, S1
352, S1
353, S1
354, S1
355, S1
356, S1
357, S1
358, S1
359, S1
360, S1
361, S1
362, S1
363, S1
364, S1
365, S1
366, S1
367, S1
368, S1
369, S1
370, S1
371, S1
372, S1
373, S1
374, S1
375, S1
376, S1
377, S1
378, S1
379, S1
380, S1
381, S1
382, S1
383, S1
384, S1
385, S1
386, S1
387, S1
388, S1
389, S1
390, S1
391, S1
392, S1
393, S1
*MATERIAL, NAME=STEEL
*ELASTIC
210000., 0.3
*SOLID SECTION, ELSET=PLATE, MATERIAL=STEEL
*SOLID SECTION, ELSET=ROCKER, MATERIAL=STEEL
*SURFACE INTERACTION, NAME=STEEL_ON_STEEL
*SURFACE BEHAVIOR, PRESSURE-OVERCLOSURE=LINEAR
1000000.
*CONTACT PAIR, INTERACTION=STEEL_ON_STEEL, TYPE=NODE TO SURFACE
ROCKER_BOTTOM, PLATE_TOP
*BOUNDARY
NBOTTOM, 1, 3
NTOP, 1, 2
*STEP, INC=100
*STATIC
0.34, 1.
*BOUNDARY
NTOP, 3, 3, -0.04
*NODE FILE, CONTACT ELEMENTS
U
*EL FILE
S
*CONTACT FILE
CDIS, CSTR
*END STEP
