*HEADING
ccxview sample: a tilted block on a plate, a varying contact gap
*NODE, NSET=NALL
1, -15, -10, -6
2, -11.666667, -10, -6
3, -8.3333333, -10, -6
4, -5, -10, -6
5, -1.6666667, -10, -6
6, 1.6666667, -10, -6
7, 5, -10, -6
8, 8.3333333, -10, -6
9, 11.666667, -10, -6
10, 15, -10, -6
11, -15, -6.6666667, -6
12, -11.666667, -6.6666667, -6
13, -8.3333333, -6.6666667, -6
14, -5, -6.6666667, -6
15, -1.6666667, -6.6666667, -6
16, 1.6666667, -6.6666667, -6
17, 5, -6.6666667, -6
18, 8.3333333, -6.6666667, -6
19, 11.666667, -6.6666667, -6
20, 15, -6.6666667, -6
21, -15, -3.3333333, -6
22, -11.666667, -3.3333333, -6
23, -8.3333333, -3.3333333, -6
24, -5, -3.3333333, -6
25, -1.6666667, -3.3333333, -6
26, 1.6666667, -3.3333333, -6
27, 5, -3.3333333, -6
28, 8.3333333, -3.3333333, -6
29, 11.666667, -3.3333333, -6
30, 15, -3.3333333, -6
31, -15, 0, -6
32, -11.666667, 0, -6
33, -8.3333333, 0, -6
34, -5, 0, -6
35, -1.6666667, 0, -6
36, 1.6666667, 0, -6
37, 5, 0, -6
38, 8.3333333, 0, -6
39, 11.666667, 0, -6
40, 15, 0, -6
41, -15, 3.3333333, -6
42, -11.666667, 3.3333333, -6
43, -8.3333333, 3.3333333, -6
44, -5, 3.3333333, -6
45, -1.6666667, 3.3333333, -6
46, 1.6666667, 3.3333333, -6
47, 5, 3.3333333, -6
48, 8.3333333, 3.3333333, -6
49, 11.666667, 3.3333333, -6
50, 15, 3.3333333, -6
51, -15, 6.6666667, -6
52, -11.666667, 6.6666667, -6
53, -8.3333333, 6.6666667, -6
54, -5, 6.6666667, -6
55, -1.6666667, 6.6666667, -6
56, 1.6666667, 6.6666667, -6
57, 5, 6.6666667, -6
58, 8.3333333, 6.6666667, -6
59, 11.666667, 6.6666667, -6
60, 15, 6.6666667, -6
61, -15, 10, -6
62, -11.666667, 10, -6
63, -8.3333333, 10, -6
64, -5, 10, -6
65, -1.6666667, 10, -6
66, 1.6666667, 10, -6
67, 5, 10, -6
68, 8.3333333, 10, -6
69, 11.666667, 10, -6
70, 15, 10, -6
71, -15, -10, -3
72, -11.666667, -10, -3
73, -8.3333333, -10, -3
74, -5, -10, -3
75, -1.6666667, -10, -3
76, 1.6666667, -10, -3
77, 5, -10, -3
78, 8.3333333, -10, -3
79, 11.666667, -10, -3
80, 15, -10, -3
81, -15, -6.6666667, -3
82, -11.666667, -6.6666667, -3
83, -8.3333333, -6.6666667, -3
84, -5, -6.6666667, -3
85, -1.6666667, -6.6666667, -3
86, 1.6666667, -6.6666667, -3
87, 5, -6.6666667, -3
88, 8.3333333, -6.6666667, -3
89, 11.666667, -6.6666667, -3
90, 15, -6.6666667, -3
91, -15, -3.3333333, -3
92, -11.666667, -3.3333333, -3
93, -8.3333333, -3.3333333, -3
94, -5, -3.3333333, -3
95, -1.6666667, -3.3333333, -3
96, 1.6666667, -3.3333333, -3
97, 5, -3.3333333, -3
98, 8.3333333, -3.3333333, -3
99, 11.666667, -3.3333333, -3
100, 15, -3.3333333, -3
101, -15, 0, -3
102, -11.666667, 0, -3
103, -8.3333333, 0, -3
104, -5, 0, -3
105, -1.6666667, 0, -3
106, 1.6666667, 0, -3
107, 5, 0, -3
108, 8.3333333, 0, -3
109, 11.666667, 0, -3
110, 15, 0, -3
111, -15, 3.3333333, -3
112, -11.666667, 3.3333333, -3
113, -8.3333333, 3.3333333, -3
114, -5, 3.3333333, -3
115, -1.6666667, 3.3333333, -3
116, 1.6666667, 3.3333333, -3
117, 5, 3.3333333, -3
118, 8.3333333, 3.3333333, -3
119, 11.666667, 3.3333333, -3
120, 15, 3.3333333, -3
121, -15, 6.6666667, -3
122, -11.666667, 6.6666667, -3
123, -8.3333333, 6.6666667, -3
124, -5, 6.6666667, -3
125, -1.6666667, 6.6666667, -3
126, 1.6666667, 6.6666667, -3
127, 5, 6.6666667, -3
128, 8.3333333, 6.6666667, -3
129, 11.666667, 6.6666667, -3
130, 15, 6.6666667, -3
131, -15, 10, -3
132, -11.666667, 10, -3
133, -8.3333333, 10, -3
134, -5, 10, -3
135, -1.6666667, 10, -3
136, 1.6666667, 10, -3
137, 5, 10, -3
138, 8.3333333, 10, -3
139, 11.666667, 10, -3
140, 15, 10, -3
141, -15, -10, 0
142, -11.666667, -10, 0
143, -8.3333333, -10, 0
144, -5, -10, 0
145, -1.6666667, -10, 0
146, 1.6666667, -10, 0
147, 5, -10, 0
148, 8.3333333, -10, 0
149, 11.666667, -10, 0
150, 15, -10, 0
151, -15, -6.6666667, 0
152, -11.666667, -6.6666667, 0
153, -8.3333333, -6.6666667, 0
154, -5, -6.6666667, 0
155, -1.6666667, -6.6666667, 0
156, 1.6666667, -6.6666667, 0
157, 5, -6.6666667, 0
158, 8.3333333, -6.6666667, 0
159, 11.666667, -6.6666667, 0
160, 15, -6.6666667, 0
161, -15, -3.3333333, 0
162, -11.666667, -3.3333333, 0
163, -8.3333333, -3.3333333, 0
164, -5, -3.3333333, 0
165, -1.6666667, -3.3333333, 0
166, 1.6666667, -3.3333333, 0
167, 5, -3.3333333, 0
168, 8.3333333, -3.3333333, 0
169, 11.666667, -3.3333333, 0
170, 15, -3.3333333, 0
171, -15, 0, 0
172, -11.666667, 0, 0
173, -8.3333333, 0, 0
174, -5, 0, 0
175, -1.6666667, 0, 0
176, 1.6666667, 0, 0
177, 5, 0, 0
178, 8.3333333, 0, 0
179, 11.666667, 0, 0
180, 15, 0, 0
181, -15, 3.3333333, 0
182, -11.666667, 3.3333333, 0
183, -8.3333333, 3.3333333, 0
184, -5, 3.3333333, 0
185, -1.6666667, 3.3333333, 0
186, 1.6666667, 3.3333333, 0
187, 5, 3.3333333, 0
188, 8.3333333, 3.3333333, 0
189, 11.666667, 3.3333333, 0
190, 15, 3.3333333, 0
191, -15, 6.6666667, 0
192, -11.666667, 6.6666667, 0
193, -8.3333333, 6.6666667, 0
194, -5, 6.6666667, 0
195, -1.6666667, 6.6666667, 0
196, 1.6666667, 6.6666667, 0
197, 5, 6.6666667, 0
198, 8.3333333, 6.6666667, 0
199, 11.666667, 6.6666667, 0
200, 15, 6.6666667, 0
201, -15, 10, 0
202, -11.666667, 10, 0
203, -8.3333333, 10, 0
204, -5, 10, 0
205, -1.6666667, 10, 0
206, 1.6666667, 10, 0
207, 5, 10, 0
208, 8.3333333, 10, 0
209, 11.666667, 10, 0
210, 15, 10, 0
211, -10, -6, 0
212, -8.0006247, -6, 0.049984382
213, -6.0012494, -6, 0.099968765
214, -4.0018741, -6, 0.14995315
215, -2.0024988, -6, 0.19993753
216, -0.0031235359, -6, 0.24992191
217, 1.9962518, -6, 0.29990629
218, 3.995627, -6, 0.34989068
219, 5.9950023, -6, 0.39987506
220, 7.9943776, -6, 0.44985944
221, 9.9937529, -6, 0.49984382
222, -10, -4, 0
223, -8.0006247, -4, 0.049984382
224, -6.0012494, -4, 0.099968765
225, -4.0018741, -4, 0.14995315
226, -2.0024988, -4, 0.19993753
227, -0.0031235359, -4, 0.24992191
228, 1.9962518, -4, 0.29990629
229, 3.995627, -4, 0.34989068
230, 5.9950023, -4, 0.39987506
231, 7.9943776, -4, 0.44985944
232, 9.9937529, -4, 0.49984382
233, -10, -2, 0
234, -8.0006247, -2, 0.049984382
235, -6.0012494, -2, 0.099968765
236, -4.0018741, -2, 0.14995315
237, -2.0024988, -2, 0.19993753
238, -0.0031235359, -2, 0.24992191
239, 1.9962518, -2, 0.29990629
240, 3.995627, -2, 0.34989068
241, 5.9950023, -2, 0.39987506
242, 7.9943776, -2, 0.44985944
243, 9.9937529, -2, 0.49984382
244, -10, 0, 0
245, -8.0006247, 0, 0.049984382
246, -6.0012494, 0, 0.099968765
247, -4.0018741, 0, 0.14995315
248, -2.0024988, 0, 0.19993753
249, -0.0031235359, 0, 0.24992191
250, 1.9962518, 0, 0.29990629
251, 3.995627, 0, 0.34989068
252, 5.9950023, 0, 0.39987506
253, 7.9943776, 0, 0.44985944
254, 9.9937529, 0, 0.49984382
255, -10, 2, 0
256, -8.0006247, 2, 0.049984382
257, -6.0012494, 2, 0.099968765
258, -4.0018741, 2, 0.14995315
259, -2.0024988, 2, 0.19993753
260, -0.0031235359, 2, 0.24992191
261, 1.9962518, 2, 0.29990629
262, 3.995627, 2, 0.34989068
263, 5.9950023, 2, 0.39987506
264, 7.9943776, 2, 0.44985944
265, 9.9937529, 2, 0.49984382
266, -10, 4, 0
267, -8.0006247, 4, 0.049984382
268, -6.0012494, 4, 0.099968765
269, -4.0018741, 4, 0.14995315
270, -2.0024988, 4, 0.19993753
271, -0.0031235359, 4, 0.24992191
272, 1.9962518, 4, 0.29990629
273, 3.995627, 4, 0.34989068
274, 5.9950023, 4, 0.39987506
275, 7.9943776, 4, 0.44985944
276, 9.9937529, 4, 0.49984382
277, -10, 6, 0
278, -8.0006247, 6, 0.049984382
279, -6.0012494, 6, 0.099968765
280, -4.0018741, 6, 0.14995315
281, -2.0024988, 6, 0.19993753
282, -0.0031235359, 6, 0.24992191
283, 1.9962518, 6, 0.29990629
284, 3.995627, 6, 0.34989068
285, 5.9950023, 6, 0.39987506
286, 7.9943776, 6, 0.44985944
287, 9.9937529, 6, 0.49984382
288, -10.06248, -6, 2.4992191
289, -8.0631052, -6, 2.5492035
290, -6.0637299, -6, 2.5991879
291, -4.0643546, -6, 2.6491723
292, -2.0649793, -6, 2.6991566
293, -0.065604014, -6, 2.749141
294, 1.9337713, -6, 2.7991254
295, 3.9331466, -6, 2.8491098
296, 5.9325219, -6, 2.8990942
297, 7.9318972, -6, 2.9490786
298, 9.9312725, -6, 2.9990629
299, -10.06248, -4, 2.4992191
300, -8.0631052, -4, 2.5492035
301, -6.0637299, -4, 2.5991879
302, -4.0643546, -4, 2.6491723
303, -2.0649793, -4, 2.6991566
304, -0.065604014, -4, 2.749141
305, 1.9337713, -4, 2.7991254
306, 3.9331466, -4, 2.8491098
307, 5.9325219, -4, 2.8990942
308, 7.9318972, -4, 2.9490786
309, 9.9312725, -4, 2.9990629
310, -10.06248, -2, 2.4992191
311, -8.0631052, -2, 2.5492035
312, -6.0637299, -2, 2.5991879
313, -4.0643546, -2, 2.6491723
314, -2.0649793, -2, 2.6991566
315, -0.065604014, -2, 2.749141
316, 1.9337713, -2, 2.7991254
317, 3.9331466, -2, 2.8491098
318, 5.9325219, -2, 2.8990942
319, 7.9318972, -2, 2.9490786
320, 9.9312725, -2, 2.9990629
321, -10.06248, 0, 2.4992191
322, -8.0631052, 0, 2.5492035
323, -6.0637299, 0, 2.5991879
324, -4.0643546, 0, 2.6491723
325, -2.0649793, 0, 2.6991566
326, -0.065604014, 0, 2.749141
327, 1.9337713, 0, 2.7991254
328, 3.9331466, 0, 2.8491098
329, 5.9325219, 0, 2.8990942
330, 7.9318972, 0, 2.9490786
331, 9.9312725, 0, 2.9990629
332, -10.06248, 2, 2.4992191
333, -8.0631052, 2, 2.5492035
334, -6.0637299, 2, 2.5991879
335, -4.0643546, 2, 2.6491723
336, -2.0649793, 2, 2.6991566
337, -0.065604014, 2, 2.749141
338, 1.9337713, 2, 2.7991254
339, 3.9331466, 2, 2.8491098
340, 5.9325219, 2, 2.8990942
341, 7.9318972, 2, 2.9490786
342, 9.9312725, 2, 2.9990629
343, -10.06248, 4, 2.4992191
344, -8.0631052, 4, 2.5492035
345, -6.0637299, 4, 2.5991879
346, -4.0643546, 4, 2.6491723
347, -2.0649793, 4, 2.6991566
348, -0.065604014, 4, 2.749141
349, 1.9337713, 4, 2.7991254
350, 3.9331466, 4, 2.8491098
351, 5.9325219, 4, 2.8990942
352, 7.9318972, 4, 2.9490786
353, 9.9312725, 4, 2.9990629
354, -10.06248, 6, 2.4992191
355, -8.0631052, 6, 2.5492035
356, -6.0637299, 6, 2.5991879
357, -4.0643546, 6, 2.6491723
358, -2.0649793, 6, 2.6991566
359, -0.065604014, 6, 2.749141
360, 1.9337713, 6, 2.7991254
361, 3.9331466, 6, 2.8491098
362, 5.9325219, 6, 2.8990942
363, 7.9318972, 6, 2.9490786
364, 9.9312725, 6, 2.9990629
365, -10.124961, -6, 4.9984382
366, -8.1255857, -6, 5.0484226
367, -6.1262104, -6, 5.098407
368, -4.1268351, -6, 5.1483914
369, -2.1274598, -6, 5.1983758
370, -0.12808449, -6, 5.2483601
371, 1.8712908, -6, 5.2983445
372, 3.8706661, -6, 5.3483289
373, 5.8700414, -6, 5.3983133
374, 7.8694167, -6, 5.4482977
375, 9.868792, -6, 5.4982821
376, -10.124961, -4, 4.9984382
377, -8.1255857, -4, 5.0484226
378, -6.1262104, -4, 5.098407
379, -4.1268351, -4, 5.1483914
380, -2.1274598, -4, 5.1983758
381, -0.12808449, -4, 5.2483601
382, 1.8712908, -4, 5.2983445
383, 3.8706661, -4, 5.3483289
384, 5.8700414, -4, 5.3983133
385, 7.8694167, -4, 5.4482977
386, 9.868792, -4, 5.4982821
387, -10.124961, -2, 4.9984382
388, -8.1255857, -2, 5.0484226
389, -6.1262104, -2, 5.098407
390, -4.1268351, -2, 5.1483914
391, -2.1274598, -2, 5.1983758
392, -0.12808449, -2, 5.2483601
393, 1.8712908, -2, 5.2983445
394, 3.8706661, -2, 5.3483289
395, 5.8700414, -2, 5.3983133
396, 7.8694167, -2, 5.4482977
397, 9.868792, -2, 5.4982821
398, -10.124961, 0, 4.9984382
399, -8.1255857, 0, 5.0484226
400, -6.1262104, 0, 5.098407
401, -4.1268351, 0, 5.1483914
402, -2.1274598, 0, 5.1983758
403, -0.12808449, 0, 5.2483601
404, 1.8712908, 0, 5.2983445
405, 3.8706661, 0, 5.3483289
406, 5.8700414, 0, 5.3983133
407, 7.8694167, 0, 5.4482977
408, 9.868792, 0, 5.4982821
409, -10.124961, 2, 4.9984382
410, -8.1255857, 2, 5.0484226
411, -6.1262104, 2, 5.098407
412, -4.1268351, 2, 5.1483914
413, -2.1274598, 2, 5.1983758
414, -0.12808449, 2, 5.2483601
415, 1.8712908, 2, 5.2983445
416, 3.8706661, 2, 5.3483289
417, 5.8700414, 2, 5.3983133
418, 7.8694167, 2, 5.4482977
419, 9.868792, 2, 5.4982821
420, -10.124961, 4, 4.9984382
421, -8.1255857, 4, 5.0484226
422, -6.1262104, 4, 5.098407
423, -4.1268351, 4, 5.1483914
424, -2.1274598, 4, 5.1983758
425, -0.12808449, 4, 5.2483601
426, 1.8712908, 4, 5.2983445
427, 3.8706661, 4, 5.3483289
428, 5.8700414, 4, 5.3983133
429, 7.8694167, 4, 5.4482977
430, 9.868792, 4, 5.4982821
431, -10.124961, 6, 4.9984382
432, -8.1255857, 6, 5.0484226
433, -6.1262104, 6, 5.098407
434, -4.1268351, 6, 5.1483914
435, -2.1274598, 6, 5.1983758
436, -0.12808449, 6, 5.2483601
437, 1.8712908, 6, 5.2983445
438, 3.8706661, 6, 5.3483289
439, 5.8700414, 6, 5.3983133
440, 7.8694167, 6, 5.4482977
441, 9.868792, 6, 5.4982821
442, -10.187441, -6, 7.4976573
443, -8.1880661, -6, 7.5476417
444, -6.1886908, -6, 7.5976261
445, -4.1893156, -6, 7.6476105
446, -2.1899403, -6, 7.6975949
447, -0.19056497, -6, 7.7475793
448, 1.8088103, -6, 7.7975636
449, 3.8081856, -6, 7.847548
450, 5.8075609, -6, 7.8975324
451, 7.8069362, -6, 7.9475168
452, 9.8063115, -6, 7.9975012
453, -10.187441, -4, 7.4976573
454, -8.1880661, -4, 7.5476417
455, -6.1886908, -4, 7.5976261
456, -4.1893156, -4, 7.6476105
457, -2.1899403, -4, 7.6975949
458, -0.19056497, -4, 7.7475793
459, 1.8088103, -4, 7.7975636
460, 3.8081856, -4, 7.847548
461, 5.8075609, -4, 7.8975324
462, 7.8069362, -4, 7.9475168
463, 9.8063115, -4, 7.9975012
464, -10.187441, -2, 7.4976573
465, -8.1880661, -2, 7.5476417
466, -6.1886908, -2, 7.5976261
467, -4.1893156, -2, 7.6476105
468, -2.1899403, -2, 7.6975949
469, -0.19056497, -2, 7.7475793
470, 1.8088103, -2, 7.7975636
471, 3.8081856, -2, 7.847548
472, 5.8075609, -2, 7.8975324
473, 7.8069362, -2, 7.9475168
474, 9.8063115, -2, 7.9975012
475, -10.187441, 0, 7.4976573
476, -8.1880661, 0, 7.5476417
477, -6.1886908, 0, 7.5976261
478, -4.1893156, 0, 7.6476105
479, -2.1899403, 0, 7.6975949
480, -0.19056497, 0, 7.7475793
481, 1.8088103, 0, 7.7975636
482, 3.8081856, 0, 7.847548
483, 5.8075609, 0, 7.8975324
484, 7.8069362, 0, 7.9475168
485, 9.8063115, 0, 7.9975012
486, -10.187441, 2, 7.4976573
487, -8.1880661, 2, 7.5476417
488, -6.1886908, 2, 7.5976261
489, -4.1893156, 2, 7.6476105
490, -2.1899403, 2, 7.6975949
491, -0.19056497, 2, 7.7475793
492, 1.8088103, 2, 7.7975636
493, 3.8081856, 2, 7.847548
494, 5.8075609, 2, 7.8975324
495, 7.8069362, 2, 7.9475168
496, 9.8063115, 2, 7.9975012
497, -10.187441, 4, 7.4976573
498, -8.1880661, 4, 7.5476417
499, -6.1886908, 4, 7.5976261
500, -4.1893156, 4, 7.6476105
501, -2.1899403, 4, 7.6975949
502, -0.19056497, 4, 7.7475793
503, 1.8088103, 4, 7.7975636
504, 3.8081856, 4, 7.847548
505, 5.8075609, 4, 7.8975324
506, 7.8069362, 4, 7.9475168
507, 9.8063115, 4, 7.9975012
508, -10.187441, 6, 7.4976573
509, -8.1880661, 6, 7.5476417
510, -6.1886908, 6, 7.5976261
511, -4.1893156, 6, 7.6476105
512, -2.1899403, 6, 7.6975949
513, -0.19056497, 6, 7.7475793
514, 1.8088103, 6, 7.7975636
515, 3.8081856, 6, 7.847548
516, 5.8075609, 6, 7.8975324
517, 7.8069362, 6, 7.9475168
518, 9.8063115, 6, 7.9975012
519, -10.249922, -6, 9.9968765
520, -8.2505466, -6, 10.046861
521, -6.2511713, -6, 10.096845
522, -4.251796, -6, 10.14683
523, -2.2524207, -6, 10.196814
524, -0.25304545, -6, 10.246798
525, 1.7463298, -6, 10.296783
526, 3.7457051, -6, 10.346767
527, 5.7450804, -6, 10.396752
528, 7.7444557, -6, 10.446736
529, 9.743831, -6, 10.49672
530, -10.249922, -4, 9.9968765
531, -8.2505466, -4, 10.046861
532, -6.2511713, -4, 10.096845
533, -4.251796, -4, 10.14683
534, -2.2524207, -4, 10.196814
535, -0.25304545, -4, 10.246798
536, 1.7463298, -4, 10.296783
537, 3.7457051, -4, 10.346767
538, 5.7450804, -4, 10.396752
539, 7.7444557, -4, 10.446736
540, 9.743831, -4, 10.49672
541, -10.249922, -2, 9.9968765
542, -8.2505466, -2, 10.046861
543, -6.2511713, -2, 10.096845
544, -4.251796, -2, 10.14683
545, -2.2524207, -2, 10.196814
546, -0.25304545, -2, 10.246798
547, 1.7463298, -2, 10.296783
548, 3.7457051, -2, 10.346767
549, 5.7450804, -2, 10.396752
550, 7.7444557, -2, 10.446736
551, 9.743831, -2, 10.49672
552, -10.249922, 0, 9.9968765
553, -8.2505466, 0, 10.046861
554, -6.2511713, 0, 10.096845
555, -4.251796, 0, 10.14683
556, -2.2524207, 0, 10.196814
557, -0.25304545, 0, 10.246798
558, 1.7463298, 0, 10.296783
559, 3.7457051, 0, 10.346767
560, 5.7450804, 0, 10.396752
561, 7.7444557, 0, 10.446736
562, 9.743831, 0, 10.49672
563, -10.249922, 2, 9.9968765
564, -8.2505466, 2, 10.046861
565, -6.2511713, 2, 10.096845
566, -4.251796, 2, 10.14683
567, -2.2524207, 2, 10.196814
568, -0.25304545, 2, 10.246798
569, 1.7463298, 2, 10.296783
570, 3.7457051, 2, 10.346767
571, 5.7450804, 2, 10.396752
572, 7.7444557, 2, 10.446736
573, 9.743831, 2, 10.49672
574, -10.249922, 4, 9.9968765
575, -8.2505466, 4, 10.046861
576, -6.2511713, 4, 10.096845
577, -4.251796, 4, 10.14683
578, -2.2524207, 4, 10.196814
579, -0.25304545, 4, 10.246798
580, 1.7463298, 4, 10.296783
581, 3.7457051, 4, 10.346767
582, 5.7450804, 4, 10.396752
583, 7.7444557, 4, 10.446736
584, 9.743831, 4, 10.49672
585, -10.249922, 6, 9.9968765
586, -8.2505466, 6, 10.046861
587, -6.2511713, 6, 10.096845
588, -4.251796, 6, 10.14683
589, -2.2524207, 6, 10.196814
590, -0.25304545, 6, 10.246798
591, 1.7463298, 6, 10.296783
592, 3.7457051, 6, 10.346767
593, 5.7450804, 6, 10.396752
594, 7.7444557, 6, 10.446736
595, 9.743831, 6, 10.49672
*ELEMENT, TYPE=C3D8I, ELSET=PLATE
1, 1, 2, 12, 11, 71, 72, 82, 81
2, 2, 3, 13, 12, 72, 73, 83, 82
3, 3, 4, 14, 13, 73, 74, 84, 83
4, 4, 5, 15, 14, 74, 75, 85, 84
5, 5, 6, 16, 15, 75, 76, 86, 85
6, 6, 7, 17, 16, 76, 77, 87, 86
7, 7, 8, 18, 17, 77, 78, 88, 87
8, 8, 9, 19, 18, 78, 79, 89, 88
9, 9, 10, 20, 19, 79, 80, 90, 89
10, 11, 12, 22, 21, 81, 82, 92, 91
11, 12, 13, 23, 22, 82, 83, 93, 92
12, 13, 14, 24, 23, 83, 84, 94, 93
13, 14, 15, 25, 24, 84, 85, 95, 94
14, 15, 16, 26, 25, 85, 86, 96, 95
15, 16, 17, 27, 26, 86, 87, 97, 96
16, 17, 18, 28, 27, 87, 88, 98, 97
17, 18, 19, 29, 28, 88, 89, 99, 98
18, 19, 20, 30, 29, 89, 90, 100, 99
19, 21, 22, 32, 31, 91, 92, 102, 101
20, 22, 23, 33, 32, 92, 93, 103, 102
21, 23, 24, 34, 33, 93, 94, 104, 103
22, 24, 25, 35, 34, 94, 95, 105, 104
23, 25, 26, 36, 35, 95, 96, 106, 105
24, 26, 27, 37, 36, 96, 97, 107, 106
25, 27, 28, 38, 37, 97, 98, 108, 107
26, 28, 29, 39, 38, 98, 99, 109, 108
27, 29, 30, 40, 39, 99, 100, 110, 109
28, 31, 32, 42, 41, 101, 102, 112, 111
29, 32, 33, 43, 42, 102, 103, 113, 112
30, 33, 34, 44, 43, 103, 104, 114, 113
31, 34, 35, 45, 44, 104, 105, 115, 114
32, 35, 36, 46, 45, 105, 106, 116, 115
33, 36, 37, 47, 46, 106, 107, 117, 116
34, 37, 38, 48, 47, 107, 108, 118, 117
35, 38, 39, 49, 48, 108, 109, 119, 118
36, 39, 40, 50, 49, 109, 110, 120, 119
37, 41, 42, 52, 51, 111, 112, 122, 121
38, 42, 43, 53, 52, 112, 113, 123, 122
39, 43, 44, 54, 53, 113, 114, 124, 123
40, 44, 45, 55, 54, 114, 115, 125, 124
41, 45, 46, 56, 55, 115, 116, 126, 125
42, 46, 47, 57, 56, 116, 117, 127, 126
43, 47, 48, 58, 57, 117, 118, 128, 127
44, 48, 49, 59, 58, 118, 119, 129, 128
45, 49, 50, 60, 59, 119, 120, 130, 129
46, 51, 52, 62, 61, 121, 122, 132, 131
47, 52, 53, 63, 62, 122, 123, 133, 132
48, 53, 54, 64, 63, 123, 124, 134, 133
49, 54, 55, 65, 64, 124, 125, 135, 134
50, 55, 56, 66, 65, 125, 126, 136, 135
51, 56, 57, 67, 66, 126, 127, 137, 136
52, 57, 58, 68, 67, 127, 128, 138, 137
53, 58, 59, 69, 68, 128, 129, 139, 138
54, 59, 60, 70, 69, 129, 130, 140, 139
55, 71, 72, 82, 81, 141, 142, 152, 151
56, 72, 73, 83, 82, 142, 143, 153, 152
57, 73, 74, 84, 83, 143, 144, 154, 153
58, 74, 75, 85, 84, 144, 145, 155, 154
59, 75, 76, 86, 85, 145, 146, 156, 155
60, 76, 77, 87, 86, 146, 147, 157, 156
61, 77, 78, 88, 87, 147, 148, 158, 157
62, 78, 79, 89, 88, 148, 149, 159, 158
63, 79, 80, 90, 89, 149, 150, 160, 159
64, 81, 82, 92, 91, 151, 152, 162, 161
65, 82, 83, 93, 92, 152, 153, 163, 162
66, 83, 84, 94, 93, 153, 154, 164, 163
67, 84, 85, 95, 94, 154, 155, 165, 164
68, 85, 86, 96, 95, 155, 156, 166, 165
69, 86, 87, 97, 96, 156, 157, 167, 166
70, 87, 88, 98, 97, 157, 158, 168, 167
71, 88, 89, 99, 98, 158, 159, 169, 168
72, 89, 90, 100, 99, 159, 160, 170, 169
73, 91, 92, 102, 101, 161, 162, 172, 171
74, 92, 93, 103, 102, 162, 163, 173, 172
75, 93, 94, 104, 103, 163, 164, 174, 173
76, 94, 95, 105, 104, 164, 165, 175, 174
77, 95, 96, 106, 105, 165, 166, 176, 175
78, 96, 97, 107, 106, 166, 167, 177, 176
79, 97, 98, 108, 107, 167, 168, 178, 177
80, 98, 99, 109, 108, 168, 169, 179, 178
81, 99, 100, 110, 109, 169, 170, 180, 179
82, 101, 102, 112, 111, 171, 172, 182, 181
83, 102, 103, 113, 112, 172, 173, 183, 182
84, 103, 104, 114, 113, 173, 174, 184, 183
85, 104, 105, 115, 114, 174, 175, 185, 184
86, 105, 106, 116, 115, 175, 176, 186, 185
87, 106, 107, 117, 116, 176, 177, 187, 186
88, 107, 108, 118, 117, 177, 178, 188, 187
89, 108, 109, 119, 118, 178, 179, 189, 188
90, 109, 110, 120, 119, 179, 180, 190, 189
91, 111, 112, 122, 121, 181, 182, 192, 191
92, 112, 113, 123, 122, 182, 183, 193, 192
93, 113, 114, 124, 123, 183, 184, 194, 193
94, 114, 115, 125, 124, 184, 185, 195, 194
95, 115, 116, 126, 125, 185, 186, 196, 195
96, 116, 117, 127, 126, 186, 187, 197, 196
97, 117, 118, 128, 127, 187, 188, 198, 197
98, 118, 119, 129, 128, 188, 189, 199, 198
99, 119, 120, 130, 129, 189, 190, 200, 199
100, 121, 122, 132, 131, 191, 192, 202, 201
101, 122, 123, 133, 132, 192, 193, 203, 202
102, 123, 124, 134, 133, 193, 194, 204, 203
103, 124, 125, 135, 134, 194, 195, 205, 204
104, 125, 126, 136, 135, 195, 196, 206, 205
105, 126, 127, 137, 136, 196, 197, 207, 206
106, 127, 128, 138, 137, 197, 198, 208, 207
107, 128, 129, 139, 138, 198, 199, 209, 208
108, 129, 130, 140, 139, 199, 200, 210, 209
*ELEMENT, TYPE=C3D8I, ELSET=BLOCK
109, 211, 212, 223, 222, 288, 289, 300, 299
110, 212, 213, 224, 223, 289, 290, 301, 300
111, 213, 214, 225, 224, 290, 291, 302, 301
112, 214, 215, 226, 225, 291, 292, 303, 302
113, 215, 216, 227, 226, 292, 293, 304, 303
114, 216, 217, 228, 227, 293, 294, 305, 304
115, 217, 218, 229, 228, 294, 295, 306, 305
116, 218, 219, 230, 229, 295, 296, 307, 306
117, 219, 220, 231, 230, 296, 297, 308, 307
118, 220, 221, 232, 231, 297, 298, 309, 308
119, 222, 223, 234, 233, 299, 300, 311, 310
120, 223, 224, 235, 234, 300, 301, 312, 311
121, 224, 225, 236, 235, 301, 302, 313, 312
122, 225, 226, 237, 236, 302, 303, 314, 313
123, 226, 227, 238, 237, 303, 304, 315, 314
124, 227, 228, 239, 238, 304, 305, 316, 315
125, 228, 229, 240, 239, 305, 306, 317, 316
126, 229, 230, 241, 240, 306, 307, 318, 317
127, 230, 231, 242, 241, 307, 308, 319, 318
128, 231, 232, 243, 242, 308, 309, 320, 319
129, 233, 234, 245, 244, 310, 311, 322, 321
130, 234, 235, 246, 245, 311, 312, 323, 322
131, 235, 236, 247, 246, 312, 313, 324, 323
132, 236, 237, 248, 247, 313, 314, 325, 324
133, 237, 238, 249, 248, 314, 315, 326, 325
134, 238, 239, 250, 249, 315, 316, 327, 326
135, 239, 240, 251, 250, 316, 317, 328, 327
136, 240, 241, 252, 251, 317, 318, 329, 328
137, 241, 242, 253, 252, 318, 319, 330, 329
138, 242, 243, 254, 253, 319, 320, 331, 330
139, 244, 245, 256, 255, 321, 322, 333, 332
140, 245, 246, 257, 256, 322, 323, 334, 333
141, 246, 247, 258, 257, 323, 324, 335, 334
142, 247, 248, 259, 258, 324, 325, 336, 335
143, 248, 249, 260, 259, 325, 326, 337, 336
144, 249, 250, 261, 260, 326, 327, 338, 337
145, 250, 251, 262, 261, 327, 328, 339, 338
146, 251, 252, 263, 262, 328, 329, 340, 339
147, 252, 253, 264, 263, 329, 330, 341, 340
148, 253, 254, 265, 264, 330, 331, 342, 341
149, 255, 256, 267, 266, 332, 333, 344, 343
150, 256, 257, 268, 267, 333, 334, 345, 344
151, 257, 258, 269, 268, 334, 335, 346, 345
152, 258, 259, 270, 269, 335, 336, 347, 346
153, 259, 260, 271, 270, 336, 337, 348, 347
154, 260, 261, 272, 271, 337, 338, 349, 348
155, 261, 262, 273, 272, 338, 339, 350, 349
156, 262, 263, 274, 273, 339, 340, 351, 350
157, 263, 264, 275, 274, 340, 341, 352, 351
158, 264, 265, 276, 275, 341, 342, 353, 352
159, 266, 267, 278, 277, 343, 344, 355, 354
160, 267, 268, 279, 278, 344, 345, 356, 355
161, 268, 269, 280, 279, 345, 346, 357, 356
162, 269, 270, 281, 280, 346, 347, 358, 357
163, 270, 271, 282, 281, 347, 348, 359, 358
164, 271, 272, 283, 282, 348, 349, 360, 359
165, 272, 273, 284, 283, 349, 350, 361, 360
166, 273, 274, 285, 284, 350, 351, 362, 361
167, 274, 275, 286, 285, 351, 352, 363, 362
168, 275, 276, 287, 286, 352, 353, 364, 363
169, 288, 289, 300, 299, 365, 366, 377, 376
170, 289, 290, 301, 300, 366, 367, 378, 377
171, 290, 291, 302, 301, 367, 368, 379, 378
172, 291, 292, 303, 302, 368, 369, 380, 379
173, 292, 293, 304, 303, 369, 370, 381, 380
174, 293, 294, 305, 304, 370, 371, 382, 381
175, 294, 295, 306, 305, 371, 372, 383, 382
176, 295, 296, 307, 306, 372, 373, 384, 383
177, 296, 297, 308, 307, 373, 374, 385, 384
178, 297, 298, 309, 308, 374, 375, 386, 385
179, 299, 300, 311, 310, 376, 377, 388, 387
180, 300, 301, 312, 311, 377, 378, 389, 388
181, 301, 302, 313, 312, 378, 379, 390, 389
182, 302, 303, 314, 313, 379, 380, 391, 390
183, 303, 304, 315, 314, 380, 381, 392, 391
184, 304, 305, 316, 315, 381, 382, 393, 392
185, 305, 306, 317, 316, 382, 383, 394, 393
186, 306, 307, 318, 317, 383, 384, 395, 394
187, 307, 308, 319, 318, 384, 385, 396, 395
188, 308, 309, 320, 319, 385, 386, 397, 396
189, 310, 311, 322, 321, 387, 388, 399, 398
190, 311, 312, 323, 322, 388, 389, 400, 399
191, 312, 313, 324, 323, 389, 390, 401, 400
192, 313, 314, 325, 324, 390, 391, 402, 401
193, 314, 315, 326, 325, 391, 392, 403, 402
194, 315, 316, 327, 326, 392, 393, 404, 403
195, 316, 317, 328, 327, 393, 394, 405, 404
196, 317, 318, 329, 328, 394, 395, 406, 405
197, 318, 319, 330, 329, 395, 396, 407, 406
198, 319, 320, 331, 330, 396, 397, 408, 407
199, 321, 322, 333, 332, 398, 399, 410, 409
200, 322, 323, 334, 333, 399, 400, 411, 410
201, 323, 324, 335, 334, 400, 401, 412, 411
202, 324, 325, 336, 335, 401, 402, 413, 412
203, 325, 326, 337, 336, 402, 403, 414, 413
204, 326, 327, 338, 337, 403, 404, 415, 414
205, 327, 328, 339, 338, 404, 405, 416, 415
206, 328, 329, 340, 339, 405, 406, 417, 416
207, 329, 330, 341, 340, 406, 407, 418, 417
208, 330, 331, 342, 341, 407, 408, 419, 418
209, 332, 333, 344, 343, 409, 410, 421, 420
210, 333, 334, 345, 344, 410, 411, 422, 421
211, 334, 335, 346, 345, 411, 412, 423, 422
212, 335, 336, 347, 346, 412, 413, 424, 423
213, 336, 337, 348, 347, 413, 414, 425, 424
214, 337, 338, 349, 348, 414, 415, 426, 425
215, 338, 339, 350, 349, 415, 416, 427, 426
216, 339, 340, 351, 350, 416, 417, 428, 427
217, 340, 341, 352, 351, 417, 418, 429, 428
218, 341, 342, 353, 352, 418, 419, 430, 429
219, 343, 344, 355, 354, 420, 421, 432, 431
220, 344, 345, 356, 355, 421, 422, 433, 432
221, 345, 346, 357, 356, 422, 423, 434, 433
222, 346, 347, 358, 357, 423, 424, 435, 434
223, 347, 348, 359, 358, 424, 425, 436, 435
224, 348, 349, 360, 359, 425, 426, 437, 436
225, 349, 350, 361, 360, 426, 427, 438, 437
226, 350, 351, 362, 361, 427, 428, 439, 438
227, 351, 352, 363, 362, 428, 429, 440, 439
228, 352, 353, 364, 363, 429, 430, 441, 440
229, 365, 366, 377, 376, 442, 443, 454, 453
230, 366, 367, 378, 377, 443, 444, 455, 454
231, 367, 368, 379, 378, 444, 445, 456, 455
232, 368, 369, 380, 379, 445, 446, 457, 456
233, 369, 370, 381, 380, 446, 447, 458, 457
234, 370, 371, 382, 381, 447, 448, 459, 458
235, 371, 372, 383, 382, 448, 449, 460, 459
236, 372, 373, 384, 383, 449, 450, 461, 460
237, 373, 374, 385, 384, 450, 451, 462, 461
238, 374, 375, 386, 385, 451, 452, 463, 462
239, 376, 377, 388, 387, 453, 454, 465, 464
240, 377, 378, 389, 388, 454, 455, 466, 465
241, 378, 379, 390, 389, 455, 456, 467, 466
242, 379, 380, 391, 390, 456, 457, 468, 467
243, 380, 381, 392, 391, 457, 458, 469, 468
244, 381, 382, 393, 392, 458, 459, 470, 469
245, 382, 383, 394, 393, 459, 460, 471, 470
246, 383, 384, 395, 394, 460, 461, 472, 471
247, 384, 385, 396, 395, 461, 462, 473, 472
248, 385, 386, 397, 396, 462, 463, 474, 473
249, 387, 388, 399, 398, 464, 465, 476, 475
250, 388, 389, 400, 399, 465, 466, 477, 476
251, 389, 390, 401, 400, 466, 467, 478, 477
252, 390, 391, 402, 401, 467, 468, 479, 478
253, 391, 392, 403, 402, 468, 469, 480, 479
254, 392, 393, 404, 403, 469, 470, 481, 480
255, 393, 394, 405, 404, 470, 471, 482, 481
256, 394, 395, 406, 405, 471, 472, 483, 482
257, 395, 396, 407, 406, 472, 473, 484, 483
258, 396, 397, 408, 407, 473, 474, 485, 484
259, 398, 399, 410, 409, 475, 476, 487, 486
260, 399, 400, 411, 410, 476, 477, 488, 487
261, 400, 401, 412, 411, 477, 478, 489, 488
262, 401, 402, 413, 412, 478, 479, 490, 489
263, 402, 403, 414, 413, 479, 480, 491, 490
264, 403, 404, 415, 414, 480, 481, 492, 491
265, 404, 405, 416, 415, 481, 482, 493, 492
266, 405, 406, 417, 416, 482, 483, 494, 493
267, 406, 407, 418, 417, 483, 484, 495, 494
268, 407, 408, 419, 418, 484, 485, 496, 495
269, 409, 410, 421, 420, 486, 487, 498, 497
270, 410, 411, 422, 421, 487, 488, 499, 498
271, 411, 412, 423, 422, 488, 489, 500, 499
272, 412, 413, 424, 423, 489, 490, 501, 500
273, 413, 414, 425, 424, 490, 491, 502, 501
274, 414, 415, 426, 425, 491, 492, 503, 502
275, 415, 416, 427, 426, 492, 493, 504, 503
276, 416, 417, 428, 427, 493, 494, 505, 504
277, 417, 418, 429, 428, 494, 495, 506, 505
278, 418, 419, 430, 429, 495, 496, 507, 506
279, 420, 421, 432, 431, 497, 498, 509, 508
280, 421, 422, 433, 432, 498, 499, 510, 509
281, 422, 423, 434, 433, 499, 500, 511, 510
282, 423, 424, 435, 434, 500, 501, 512, 511
283, 424, 425, 436, 435, 501, 502, 513, 512
284, 425, 426, 437, 436, 502, 503, 514, 513
285, 426, 427, 438, 437, 503, 504, 515, 514
286, 427, 428, 439, 438, 504, 505, 516, 515
287, 428, 429, 440, 439, 505, 506, 517, 516
288, 429, 430, 441, 440, 506, 507, 518, 517
289, 442, 443, 454, 453, 519, 520, 531, 530
290, 443, 444, 455, 454, 520, 521, 532, 531
291, 444, 445, 456, 455, 521, 522, 533, 532
292, 445, 446, 457, 456, 522, 523, 534, 533
293, 446, 447, 458, 457, 523, 524, 535, 534
294, 447, 448, 459, 458, 524, 525, 536, 535
295, 448, 449, 460, 459, 525, 526, 537, 536
296, 449, 450, 461, 460, 526, 527, 538, 537
297, 450, 451, 462, 461, 527, 528, 539, 538
298, 451, 452, 463, 462, 528, 529, 540, 539
299, 453, 454, 465, 464, 530, 531, 542, 541
300, 454, 455, 466, 465, 531, 532, 543, 542
301, 455, 456, 467, 466, 532, 533, 544, 543
302, 456, 457, 468, 467, 533, 534, 545, 544
303, 457, 458, 469, 468, 534, 535, 546, 545
304, 458, 459, 470, 469, 535, 536, 547, 546
305, 459, 460, 471, 470, 536, 537, 548, 547
306, 460, 461, 472, 471, 537, 538, 549, 548
307, 461, 462, 473, 472, 538, 539, 550, 549
308, 462, 463, 474, 473, 539, 540, 551, 550
309, 464, 465, 476, 475, 541, 542, 553, 552
310, 465, 466, 477, 476, 542, 543, 554, 553
311, 466, 467, 478, 477, 543, 544, 555, 554
312, 467, 468, 479, 478, 544, 545, 556, 555
313, 468, 469, 480, 479, 545, 546, 557, 556
314, 469, 470, 481, 480, 546, 547, 558, 557
315, 470, 471, 482, 481, 547, 548, 559, 558
316, 471, 472, 483, 482, 548, 549, 560, 559
317, 472, 473, 484, 483, 549, 550, 561, 560
318, 473, 474, 485, 484, 550, 551, 562, 561
319, 475, 476, 487, 486, 552, 553, 564, 563
320, 476, 477, 488, 487, 553, 554, 565, 564
321, 477, 478, 489, 488, 554, 555, 566, 565
322, 478, 479, 490, 489, 555, 556, 567, 566
323, 479, 480, 491, 490, 556, 557, 568, 567
324, 480, 481, 492, 491, 557, 558, 569, 568
325, 481, 482, 493, 492, 558, 559, 570, 569
326, 482, 483, 494, 493, 559, 560, 571, 570
327, 483, 484, 495, 494, 560, 561, 572, 571
328, 484, 485, 496, 495, 561, 562, 573, 572
329, 486, 487, 498, 497, 563, 564, 575, 574
330, 487, 488, 499, 498, 564, 565, 576, 575
331, 488, 489, 500, 499, 565, 566, 577, 576
332, 489, 490, 501, 500, 566, 567, 578, 577
333, 490, 491, 502, 501, 567, 568, 579, 578
334, 491, 492, 503, 502, 568, 569, 580, 579
335, 492, 493, 504, 503, 569, 570, 581, 580
336, 493, 494, 505, 504, 570, 571, 582, 581
337, 494, 495, 506, 505, 571, 572, 583, 582
338, 495, 496, 507, 506, 572, 573, 584, 583
339, 497, 498, 509, 508, 574, 575, 586, 585
340, 498, 499, 510, 509, 575, 576, 587, 586
341, 499, 500, 511, 510, 576, 577, 588, 587
342, 500, 501, 512, 511, 577, 578, 589, 588
343, 501, 502, 513, 512, 578, 579, 590, 589
344, 502, 503, 514, 513, 579, 580, 591, 590
345, 503, 504, 515, 514, 580, 581, 592, 591
346, 504, 505, 516, 515, 581, 582, 593, 592
347, 505, 506, 517, 516, 582, 583, 594, 593
348, 506, 507, 518, 517, 583, 584, 595, 594
*NSET, NSET=NBOTTOM
1, 2, 3, 4, 5, 6, 7, 8, 9, 10, 11, 12, 13, 14, 15, 16,
17, 18, 19, 20, 21, 22, 23, 24, 25, 26, 27, 28, 29, 30, 31, 32,
33, 34, 35, 36, 37, 38, 39, 40, 41, 42, 43, 44, 45, 46, 47, 48,
49, 50, 51, 52, 53, 54, 55, 56, 57, 58, 59, 60, 61, 62, 63, 64,
65, 66, 67, 68, 69, 70
*NSET, NSET=NTOP
519, 520, 521, 522, 523, 524, 525, 526, 527, 528, 529, 530, 531, 532, 533, 534,
535, 536, 537, 538, 539, 540, 541, 542, 543, 544, 545, 546, 547, 548, 549, 550,
551, 552, 553, 554, 555, 556, 557, 558, 559, 560, 561, 562, 563, 564, 565, 566,
567, 568, 569, 570, 571, 572, 573, 574, 575, 576, 577, 578, 579, 580, 581, 582,
583, 584, 585, 586, 587, 588, 589, 590, 591, 592, 593, 594, 595
*SURFACE, NAME=PLATE_TOP
55, S2
56, S2
57, S2
58, S2
59, S2
60, S2
61, S2
62, S2
63, S2
64, S2
65, S2
66, S2
67, S2
68, S2
69, S2
70, S2
71, S2
72, S2
73, S2
74, S2
75, S2
76, S2
77, S2
78, S2
79, S2
80, S2
81, S2
82, S2
83, S2
84, S2
85, S2
86, S2
87, S2
88, S2
89, S2
90, S2
91, S2
92, S2
93, S2
94, S2
95, S2
96, S2
97, S2
98, S2
99, S2
100, S2
101, S2
102, S2
103, S2
104, S2
105, S2
106, S2
107, S2
108, S2
*SURFACE, NAME=BLOCK_BOTTOM
109, S1
110, S1
111, S1
112, S1
113, S1
114, S1
115, S1
116, S1
117, S1
118, S1
119, S1
120, S1
121, S1
122, S1
123, S1
124, S1
125, S1
126, S1
127, S1
128, S1
129, S1
130, S1
131, S1
132, S1
133, S1
134, S1
135, S1
136, S1
137, S1
138, S1
139, S1
140, S1
141, S1
142, S1
143, S1
144, S1
145, S1
146, S1
147, S1
148, S1
149, S1
150, S1
151, S1
152, S1
153, S1
154, S1
155, S1
156, S1
157, S1
158, S1
159, S1
160, S1
161, S1
162, S1
163, S1
164, S1
165, S1
166, S1
167, S1
168, S1
*MATERIAL, NAME=STEEL
*ELASTIC
210000., 0.3
*SOLID SECTION, ELSET=PLATE, MATERIAL=STEEL
*SOLID SECTION, ELSET=BLOCK, MATERIAL=STEEL
*SURFACE INTERACTION, NAME=STEEL_ON_STEEL
*SURFACE BEHAVIOR, PRESSURE-OVERCLOSURE=LINEAR
1000000., 0., 1
*FRICTION
0.3, 50000.
*CONTACT PAIR, INTERACTION=STEEL_ON_STEEL, TYPE=NODE TO SURFACE
BLOCK_BOTTOM, PLATE_TOP
*BOUNDARY
NBOTTOM, 1, 3
NTOP, 1, 2
*STEP, INC=100
*STATIC
0.34, 1.
*BOUNDARY
NTOP, 3, 3, -0.15
NTOP, 1, 1, 0.004
*NODE FILE, CONTACT ELEMENTS
U
*CONTACT FILE
CDIS, CSTR
*END STEP
