*HEADING
ccxview sample: S8R cantilever plate, in-plane pull then end line load
*NODE, NSET=NALL
1, 0, 0, 0
2, 5, 0, 0
3, 10, 0, 0
4, 15, 0, 0
5, 20, 0, 0
6, 25, 0, 0
7, 30, 0, 0
8, 35, 0, 0
9, 40, 0, 0
10, 45, 0, 0
11, 50, 0, 0
12, 55, 0, 0
13, 60, 0, 0
14, 65, 0, 0
15, 70, 0, 0
16, 75, 0, 0
17, 80, 0, 0
18, 85, 0, 0
19, 90, 0, 0
20, 95, 0, 0
21, 100, 0, 0
22, 0, 5, 0
23, 10, 5, 0
24, 20, 5, 0
25, 30, 5, 0
26, 40, 5, 0
27, 50, 5, 0
28, 60, 5, 0
29, 70, 5, 0
30, 80, 5, 0
31, 90, 5, 0
32, 100, 5, 0
33, 0, 10, 0
34, 5, 10, 0
35, 10, 10, 0
36, 15, 10, 0
37, 20, 10, 0
38, 25, 10, 0
39, 30, 10, 0
40, 35, 10, 0
41, 40, 10, 0
42, 45, 10, 0
43, 50, 10, 0
44, 55, 10, 0
45, 60, 10, 0
46, 65, 10, 0
47, 70, 10, 0
48, 75, 10, 0
49, 80, 10, 0
50, 85, 10, 0
51, 90, 10, 0
52, 95, 10, 0
53, 100, 10, 0
54, 0, 15, 0
55, 10, 15, 0
56, 20, 15, 0
57, 30, 15, 0
58, 40, 15, 0
59, 50, 15, 0
60, 60, 15, 0
61, 70, 15, 0
62, 80, 15, 0
63, 90, 15, 0
64, 100, 15, 0
65, 0, 20, 0
66, 5, 20, 0
67, 10, 20, 0
68, 15, 20, 0
69, 20, 20, 0
70, 25, 20, 0
71, 30, 20, 0
72, 35, 20, 0
73, 40, 20, 0
74, 45, 20, 0
75, 50, 20, 0
76, 55, 20, 0
77, 60, 20, 0
78, 65, 20, 0
79, 70, 20, 0
80, 75, 20, 0
81, 80, 20, 0
82, 85, 20, 0
83, 90, 20, 0
84, 95, 20, 0
85, 100, 20, 0
*ELEMENT, TYPE=S8R, ELSET=EALL
1, 1, 3, 35, 33, 2, 23, 34, 22
2, 3, 5, 37, 35, 4, 24, 36, 23
3, 5, 7, 39, 37, 6, 25, 38, 24
4, 7, 9, 41, 39, 8, 26, 40, 25
5, 9, 11, 43, 41, 10, 27, 42, 26
6, 11, 13, 45, 43, 12, 28, 44, 27
7, 13, 15, 47, 45, 14, 29, 46, 28
8, 15, 17, 49, 47, 16, 30, 48, 29
9, 17, 19, 51, 49, 18, 31, 50, 30
10, 19, 21, 53, 51, 20, 32, 52, 31
11, 33, 35, 67, 65, 34, 55, 66, 54
12, 35, 37, 69, 67, 36, 56, 68, 55
13, 37, 39, 71, 69, 38, 57, 70, 56
14, 39, 41, 73, 71, 40, 58, 72, 57
15, 41, 43, 75, 73, 42, 59, 74, 58
16, 43, 45, 77, 75, 44, 60, 76, 59
17, 45, 47, 79, 77, 46, 61, 78, 60
18, 47, 49, 81, 79, 48, 62, 80, 61
19, 49, 51, 83, 81, 50, 63, 82, 62
20, 51, 53, 85, 83, 52, 64, 84, 63
*NSET, NSET=ROOT
1,
22,
33,
54,
65,
*NSET, NSET=TIP
21,
32,
53,
64,
85,
*MATERIAL, NAME=STEEL
*ELASTIC
210000, 0.3
*SHELL SECTION, ELSET=EALL, MATERIAL=STEEL
2
*BOUNDARY
ROOT, 1, 6
*STEP
*STATIC
*CLOAD
21, 1, 83.3333333
32, 1, 333.333333
53, 1, 166.666667
64, 1, 333.333333
85, 1, 83.3333333
*NODE FILE
U, RF
*EL FILE
S
*NODE PRINT, NSET=ROOT, TOTALS=ONLY
RF
*END STEP
*STEP
*STATIC
*CLOAD, OP=NEW
21, 3, -1.66666667
32, 3, -6.66666667
53, 3, -3.33333333
64, 3, -6.66666667
85, 3, -1.66666667
*NODE FILE
U, RF
*EL FILE
S
*NODE PRINT, NSET=ROOT, TOTALS=ONLY
RF
*END STEP
