*HEADING
ccxview sample: *MODEL CHANGE and amplitudes (scripts/gen_modelchange.py)
*NODE, NSET=NALL
17, 80, 0, -20
18, 85, 0, -20
19, 90, 0, -20
20, 95, 0, -20
21, 100, 0, -20
38, 80, 5, -20
39, 85, 5, -20
40, 90, 5, -20
41, 95, 5, -20
42, 100, 5, -20
59, 80, 10, -20
60, 85, 10, -20
61, 90, 10, -20
62, 95, 10, -20
63, 100, 10, -20
80, 80, 0, -15
81, 85, 0, -15
82, 90, 0, -15
83, 95, 0, -15
84, 100, 0, -15
101, 80, 5, -15
102, 85, 5, -15
103, 90, 5, -15
104, 95, 5, -15
105, 100, 5, -15
122, 80, 10, -15
123, 85, 10, -15
124, 90, 10, -15
125, 95, 10, -15
126, 100, 10, -15
143, 80, 0, -10
144, 85, 0, -10
145, 90, 0, -10
146, 95, 0, -10
147, 100, 0, -10
164, 80, 5, -10
165, 85, 5, -10
166, 90, 5, -10
167, 95, 5, -10
168, 100, 5, -10
185, 80, 10, -10
186, 85, 10, -10
187, 90, 10, -10
188, 95, 10, -10
189, 100, 10, -10
206, 80, 0, -5
207, 85, 0, -5
208, 90, 0, -5
209, 95, 0, -5
210, 100, 0, -5
227, 80, 5, -5
228, 85, 5, -5
229, 90, 5, -5
230, 95, 5, -5
231, 100, 5, -5
248, 80, 10, -5
249, 85, 10, -5
250, 90, 10, -5
251, 95, 10, -5
252, 100, 10, -5
253, 0, 0, 0
254, 5, 0, 0
255, 10, 0, 0
256, 15, 0, 0
257, 20, 0, 0
258, 25, 0, 0
259, 30, 0, 0
260, 35, 0, 0
261, 40, 0, 0
262, 45, 0, 0
263, 50, 0, 0
264, 55, 0, 0
265, 60, 0, 0
266, 65, 0, 0
267, 70, 0, 0
268, 75, 0, 0
269, 80, 0, 0
270, 85, 0, 0
271, 90, 0, 0
272, 95, 0, 0
273, 100, 0, 0
274, 0, 5, 0
275, 5, 5, 0
276, 10, 5, 0
277, 15, 5, 0
278, 20, 5, 0
279, 25, 5, 0
280, 30, 5, 0
281, 35, 5, 0
282, 40, 5, 0
283, 45, 5, 0
284, 50, 5, 0
285, 55, 5, 0
286, 60, 5, 0
287, 65, 5, 0
288, 70, 5, 0
289, 75, 5, 0
290, 80, 5, 0
291, 85, 5, 0
292, 90, 5, 0
293, 95, 5, 0
294, 100, 5, 0
295, 0, 10, 0
296, 5, 10, 0
297, 10, 10, 0
298, 15, 10, 0
299, 20, 10, 0
300, 25, 10, 0
301, 30, 10, 0
302, 35, 10, 0
303, 40, 10, 0
304, 45, 10, 0
305, 50, 10, 0
306, 55, 10, 0
307, 60, 10, 0
308, 65, 10, 0
309, 70, 10, 0
310, 75, 10, 0
311, 80, 10, 0
312, 85, 10, 0
313, 90, 10, 0
314, 95, 10, 0
315, 100, 10, 0
316, 0, 0, 5
317, 5, 0, 5
318, 10, 0, 5
319, 15, 0, 5
320, 20, 0, 5
321, 25, 0, 5
322, 30, 0, 5
323, 35, 0, 5
324, 40, 0, 5
325, 45, 0, 5
326, 50, 0, 5
327, 55, 0, 5
328, 60, 0, 5
329, 65, 0, 5
330, 70, 0, 5
331, 75, 0, 5
332, 80, 0, 5
333, 85, 0, 5
334, 90, 0, 5
335, 95, 0, 5
336, 100, 0, 5
337, 0, 5, 5
338, 5, 5, 5
339, 10, 5, 5
340, 15, 5, 5
341, 20, 5, 5
342, 25, 5, 5
343, 30, 5, 5
344, 35, 5, 5
345, 40, 5, 5
346, 45, 5, 5
347, 50, 5, 5
348, 55, 5, 5
349, 60, 5, 5
350, 65, 5, 5
351, 70, 5, 5
352, 75, 5, 5
353, 80, 5, 5
354, 85, 5, 5
355, 90, 5, 5
356, 95, 5, 5
357, 100, 5, 5
358, 0, 10, 5
359, 5, 10, 5
360, 10, 10, 5
361, 15, 10, 5
362, 20, 10, 5
363, 25, 10, 5
364, 30, 10, 5
365, 35, 10, 5
366, 40, 10, 5
367, 45, 10, 5
368, 50, 10, 5
369, 55, 10, 5
370, 60, 10, 5
371, 65, 10, 5
372, 70, 10, 5
373, 75, 10, 5
374, 80, 10, 5
375, 85, 10, 5
376, 90, 10, 5
377, 95, 10, 5
378, 100, 10, 5
379, 0, 0, 10
380, 5, 0, 10
381, 10, 0, 10
382, 15, 0, 10
383, 20, 0, 10
384, 25, 0, 10
385, 30, 0, 10
386, 35, 0, 10
387, 40, 0, 10
388, 45, 0, 10
389, 50, 0, 10
390, 55, 0, 10
391, 60, 0, 10
392, 65, 0, 10
393, 70, 0, 10
394, 75, 0, 10
395, 80, 0, 10
396, 85, 0, 10
397, 90, 0, 10
398, 95, 0, 10
399, 100, 0, 10
400, 0, 5, 10
401, 5, 5, 10
402, 10, 5, 10
403, 15, 5, 10
404, 20, 5, 10
405, 25, 5, 10
406, 30, 5, 10
407, 35, 5, 10
408, 40, 5, 10
409, 45, 5, 10
410, 50, 5, 10
411, 55, 5, 10
412, 60, 5, 10
413, 65, 5, 10
414, 70, 5, 10
415, 75, 5, 10
416, 80, 5, 10
417, 85, 5, 10
418, 90, 5, 10
419, 95, 5, 10
420, 100, 5, 10
421, 0, 10, 10
422, 5, 10, 10
423, 10, 10, 10
424, 15, 10, 10
425, 20, 10, 10
426, 25, 10, 10
427, 30, 10, 10
428, 35, 10, 10
429, 40, 10, 10
430, 45, 10, 10
431, 50, 10, 10
432, 55, 10, 10
433, 60, 10, 10
434, 65, 10, 10
435, 70, 10, 10
436, 75, 10, 10
437, 80, 10, 10
438, 85, 10, 10
439, 90, 10, 10
440, 95, 10, 10
441, 100, 10, 10
*ELEMENT, TYPE=C3D8I, ELSET=EALL
1, 17, 18, 39, 38, 80, 81, 102, 101
2, 18, 19, 40, 39, 81, 82, 103, 102
3, 19, 20, 41, 40, 82, 83, 104, 103
4, 20, 21, 42, 41, 83, 84, 105, 104
5, 38, 39, 60, 59, 101, 102, 123, 122
6, 39, 40, 61, 60, 102, 103, 124, 123
7, 40, 41, 62, 61, 103, 104, 125, 124
8, 41, 42, 63, 62, 104, 105, 126, 125
9, 80, 81, 102, 101, 143, 144, 165, 164
10, 81, 82, 103, 102, 144, 145, 166, 165
11, 82, 83, 104, 103, 145, 146, 167, 166
12, 83, 84, 105, 104, 146, 147, 168, 167
13, 101, 102, 123, 122, 164, 165, 186, 185
14, 102, 103, 124, 123, 165, 166, 187, 186
15, 103, 104, 125, 124, 166, 167, 188, 187
16, 104, 105, 126, 125, 167, 168, 189, 188
17, 143, 144, 165, 164, 206, 207, 228, 227
18, 144, 145, 166, 165, 207, 208, 229, 228
19, 145, 146, 167, 166, 208, 209, 230, 229
20, 146, 147, 168, 167, 209, 210, 231, 230
21, 164, 165, 186, 185, 227, 228, 249, 248
22, 165, 166, 187, 186, 228, 229, 250, 249
23, 166, 167, 188, 187, 229, 230, 251, 250
24, 167, 168, 189, 188, 230, 231, 252, 251
25, 206, 207, 228, 227, 269, 270, 291, 290
26, 207, 208, 229, 228, 270, 271, 292, 291
27, 208, 209, 230, 229, 271, 272, 293, 292
28, 209, 210, 231, 230, 272, 273, 294, 293
29, 227, 228, 249, 248, 290, 291, 312, 311
30, 228, 229, 250, 249, 291, 292, 313, 312
31, 229, 230, 251, 250, 292, 293, 314, 313
32, 230, 231, 252, 251, 293, 294, 315, 314
33, 253, 254, 275, 274, 316, 317, 338, 337
34, 254, 255, 276, 275, 317, 318, 339, 338
35, 255, 256, 277, 276, 318, 319, 340, 339
36, 256, 257, 278, 277, 319, 320, 341, 340
37, 257, 258, 279, 278, 320, 321, 342, 341
38, 258, 259, 280, 279, 321, 322, 343, 342
39, 259, 260, 281, 280, 322, 323, 344, 343
40, 260, 261, 282, 281, 323, 324, 345, 344
41, 261, 262, 283, 282, 324, 325, 346, 345
42, 262, 263, 284, 283, 325, 326, 347, 346
43, 263, 264, 285, 284, 326, 327, 348, 347
44, 264, 265, 286, 285, 327, 328, 349, 348
45, 265, 266, 287, 286, 328, 329, 350, 349
46, 266, 267, 288, 287, 329, 330, 351, 350
47, 267, 268, 289, 288, 330, 331, 352, 351
48, 268, 269, 290, 289, 331, 332, 353, 352
49, 269, 270, 291, 290, 332, 333, 354, 353
50, 270, 271, 292, 291, 333, 334, 355, 354
51, 271, 272, 293, 292, 334, 335, 356, 355
52, 272, 273, 294, 293, 335, 336, 357, 356
53, 274, 275, 296, 295, 337, 338, 359, 358
54, 275, 276, 297, 296, 338, 339, 360, 359
55, 276, 277, 298, 297, 339, 340, 361, 360
56, 277, 278, 299, 298, 340, 341, 362, 361
57, 278, 279, 300, 299, 341, 342, 363, 362
58, 279, 280, 301, 300, 342, 343, 364, 363
59, 280, 281, 302, 301, 343, 344, 365, 364
60, 281, 282, 303, 302, 344, 345, 366, 365
61, 282, 283, 304, 303, 345, 346, 367, 366
62, 283, 284, 305, 304, 346, 347, 368, 367
63, 284, 285, 306, 305, 347, 348, 369, 368
64, 285, 286, 307, 306, 348, 349, 370, 369
65, 286, 287, 308, 307, 349, 350, 371, 370
66, 287, 288, 309, 308, 350, 351, 372, 371
67, 288, 289, 310, 309, 351, 352, 373, 372
68, 289, 290, 311, 310, 352, 353, 374, 373
69, 290, 291, 312, 311, 353, 354, 375, 374
70, 291, 292, 313, 312, 354, 355, 376, 375
71, 292, 293, 314, 313, 355, 356, 377, 376
72, 293, 294, 315, 314, 356, 357, 378, 377
73, 316, 317, 338, 337, 379, 380, 401, 400
74, 317, 318, 339, 338, 380, 381, 402, 401
75, 318, 319, 340, 339, 381, 382, 403, 402
76, 319, 320, 341, 340, 382, 383, 404, 403
77, 320, 321, 342, 341, 383, 384, 405, 404
78, 321, 322, 343, 342, 384, 385, 406, 405
79, 322, 323, 344, 343, 385, 386, 407, 406
80, 323, 324, 345, 344, 386, 387, 408, 407
81, 324, 325, 346, 345, 387, 388, 409, 408
82, 325, 326, 347, 346, 388, 389, 410, 409
83, 326, 327, 348, 347, 389, 390, 411, 410
84, 327, 328, 349, 348, 390, 391, 412, 411
85, 328, 329, 350, 349, 391, 392, 413, 412
86, 329, 330, 351, 350, 392, 393, 414, 413
87, 330, 331, 352, 351, 393, 394, 415, 414
88, 331, 332, 353, 352, 394, 395, 416, 415
89, 332, 333, 354, 353, 395, 396, 417, 416
90, 333, 334, 355, 354, 396, 397, 418, 417
91, 334, 335, 356, 355, 397, 398, 419, 418
92, 335, 336, 357, 356, 398, 399, 420, 419
93, 337, 338, 359, 358, 400, 401, 422, 421
94, 338, 339, 360, 359, 401, 402, 423, 422
95, 339, 340, 361, 360, 402, 403, 424, 423
96, 340, 341, 362, 361, 403, 404, 425, 424
97, 341, 342, 363, 362, 404, 405, 426, 425
98, 342, 343, 364, 363, 405, 406, 427, 426
99, 343, 344, 365, 364, 406, 407, 428, 427
100, 344, 345, 366, 365, 407, 408, 429, 428
101, 345, 346, 367, 366, 408, 409, 430, 429
102, 346, 347, 368, 367, 409, 410, 431, 430
103, 347, 348, 369, 368, 410, 411, 432, 431
104, 348, 349, 370, 369, 411, 412, 433, 432
105, 349, 350, 371, 370, 412, 413, 434, 433
106, 350, 351, 372, 371, 413, 414, 435, 434
107, 351, 352, 373, 372, 414, 415, 436, 435
108, 352, 353, 374, 373, 415, 416, 437, 436
109, 353, 354, 375, 374, 416, 417, 438, 437
110, 354, 355, 376, 375, 417, 418, 439, 438
111, 355, 356, 377, 376, 418, 419, 440, 439
112, 356, 357, 378, 377, 419, 420, 441, 440
*ELSET, ELSET=EPROP
1, 2, 3, 4, 5, 6, 7, 8, 9, 10, 11, 12
13, 14, 15, 16, 17, 18, 19, 20, 21, 22, 23, 24
25, 26, 27, 28, 29, 30, 31, 32
*ELSET, ELSET=ETOP
73, 74, 75, 76, 77, 78, 79, 80, 81, 82, 83, 84
85, 86, 87, 88, 89, 90, 91, 92, 93, 94, 95, 96
97, 98, 99, 100, 101, 102, 103, 104, 105, 106, 107, 108
109, 110, 111, 112
*NSET, NSET=NFIX
253, 274, 295, 316, 337, 358, 379, 400, 421
*NSET, NSET=NGROUND
17, 18, 19, 20, 21, 38, 39, 40, 41, 42, 59, 60
61, 62, 63
*NSET, NSET=NTIP
399, 420, 441
*SURFACE, NAME=STOP, TYPE=ELEMENT
ETOP, S2
*MATERIAL, NAME=STEEL
*ELASTIC
210000., 0.3
*SOLID SECTION, ELSET=EALL, MATERIAL=STEEL
*AMPLITUDE, NAME=RAMP
0., 0., 1., 1.
*AMPLITUDE, NAME=GROW, TIME=TOTAL TIME
0., 0., 1., 0.5, 2., 1., 3., 1.
*BOUNDARY
NFIX, 1, 3
NGROUND, 1, 3
*STEP, NLGEOM
*STATIC, DIRECT
0.25, 1.
*CLOAD, AMPLITUDE=RAMP
NTIP, 3, -500.
*DSLOAD, AMPLITUDE=GROW
STOP, P, 2.
*NODE FILE
U
*EL FILE
S
*END STEP
*STEP, NLGEOM
*STATIC, DIRECT
0.5, 1.
*MODEL CHANGE, TYPE=ELEMENT, REMOVE
EPROP
*NODE FILE
U
*EL FILE
S
*END STEP
*STEP, NLGEOM
*STATIC, DIRECT
1., 1.
*MODEL CHANGE, TYPE=ELEMENT, ADD=STRAIN FREE
EPROP
*NODE FILE
U
*EL FILE
S
*END STEP
