*HEADING
ccxview sample: a submodel of modelchange.inp (scripts/gen_modelchange.py)
*NODE, NSET=NALL
10001, 0, 0, 0
10002, 2.5, 0, 0
10003, 5, 0, 0
10004, 7.5, 0, 0
10005, 10, 0, 0
10006, 12.5, 0, 0
10007, 15, 0, 0
10008, 17.5, 0, 0
10009, 20, 0, 0
10010, 0, 2.5, 0
10011, 2.5, 2.5, 0
10012, 5, 2.5, 0
10013, 7.5, 2.5, 0
10014, 10, 2.5, 0
10015, 12.5, 2.5, 0
10016, 15, 2.5, 0
10017, 17.5, 2.5, 0
10018, 20, 2.5, 0
10019, 0, 5, 0
10020, 2.5, 5, 0
10021, 5, 5, 0
10022, 7.5, 5, 0
10023, 10, 5, 0
10024, 12.5, 5, 0
10025, 15, 5, 0
10026, 17.5, 5, 0
10027, 20, 5, 0
10028, 0, 7.5, 0
10029, 2.5, 7.5, 0
10030, 5, 7.5, 0
10031, 7.5, 7.5, 0
10032, 10, 7.5, 0
10033, 12.5, 7.5, 0
10034, 15, 7.5, 0
10035, 17.5, 7.5, 0
10036, 20, 7.5, 0
10037, 0, 10, 0
10038, 2.5, 10, 0
10039, 5, 10, 0
10040, 7.5, 10, 0
10041, 10, 10, 0
10042, 12.5, 10, 0
10043, 15, 10, 0
10044, 17.5, 10, 0
10045, 20, 10, 0
10046, 0, 0, 2.5
10047, 2.5, 0, 2.5
10048, 5, 0, 2.5
10049, 7.5, 0, 2.5
10050, 10, 0, 2.5
10051, 12.5, 0, 2.5
10052, 15, 0, 2.5
10053, 17.5, 0, 2.5
10054, 20, 0, 2.5
10055, 0, 2.5, 2.5
10056, 2.5, 2.5, 2.5
10057, 5, 2.5, 2.5
10058, 7.5, 2.5, 2.5
10059, 10, 2.5, 2.5
10060, 12.5, 2.5, 2.5
10061, 15, 2.5, 2.5
10062, 17.5, 2.5, 2.5
10063, 20, 2.5, 2.5
10064, 0, 5, 2.5
10065, 2.5, 5, 2.5
10066, 5, 5, 2.5
10067, 7.5, 5, 2.5
10068, 10, 5, 2.5
10069, 12.5, 5, 2.5
10070, 15, 5, 2.5
10071, 17.5, 5, 2.5
10072, 20, 5, 2.5
10073, 0, 7.5, 2.5
10074, 2.5, 7.5, 2.5
10075, 5, 7.5, 2.5
10076, 7.5, 7.5, 2.5
10077, 10, 7.5, 2.5
10078, 12.5, 7.5, 2.5
10079, 15, 7.5, 2.5
10080, 17.5, 7.5, 2.5
10081, 20, 7.5, 2.5
10082, 0, 10, 2.5
10083, 2.5, 10, 2.5
10084, 5, 10, 2.5
10085, 7.5, 10, 2.5
10086, 10, 10, 2.5
10087, 12.5, 10, 2.5
10088, 15, 10, 2.5
10089, 17.5, 10, 2.5
10090, 20, 10, 2.5
10091, 0, 0, 5
10092, 2.5, 0, 5
10093, 5, 0, 5
10094, 7.5, 0, 5
10095, 10, 0, 5
10096, 12.5, 0, 5
10097, 15, 0, 5
10098, 17.5, 0, 5
10099, 20, 0, 5
10100, 0, 2.5, 5
10101, 2.5, 2.5, 5
10102, 5, 2.5, 5
10103, 7.5, 2.5, 5
10104, 10, 2.5, 5
10105, 12.5, 2.5, 5
10106, 15, 2.5, 5
10107, 17.5, 2.5, 5
10108, 20, 2.5, 5
10109, 0, 5, 5
10110, 2.5, 5, 5
10111, 5, 5, 5
10112, 7.5, 5, 5
10113, 10, 5, 5
10114, 12.5, 5, 5
10115, 15, 5, 5
10116, 17.5, 5, 5
10117, 20, 5, 5
10118, 0, 7.5, 5
10119, 2.5, 7.5, 5
10120, 5, 7.5, 5
10121, 7.5, 7.5, 5
10122, 10, 7.5, 5
10123, 12.5, 7.5, 5
10124, 15, 7.5, 5
10125, 17.5, 7.5, 5
10126, 20, 7.5, 5
10127, 0, 10, 5
10128, 2.5, 10, 5
10129, 5, 10, 5
10130, 7.5, 10, 5
10131, 10, 10, 5
10132, 12.5, 10, 5
10133, 15, 10, 5
10134, 17.5, 10, 5
10135, 20, 10, 5
10136, 0, 0, 7.5
10137, 2.5, 0, 7.5
10138, 5, 0, 7.5
10139, 7.5, 0, 7.5
10140, 10, 0, 7.5
10141, 12.5, 0, 7.5
10142, 15, 0, 7.5
10143, 17.5, 0, 7.5
10144, 20, 0, 7.5
10145, 0, 2.5, 7.5
10146, 2.5, 2.5, 7.5
10147, 5, 2.5, 7.5
10148, 7.5, 2.5, 7.5
10149, 10, 2.5, 7.5
10150, 12.5, 2.5, 7.5
10151, 15, 2.5, 7.5
10152, 17.5, 2.5, 7.5
10153, 20, 2.5, 7.5
10154, 0, 5, 7.5
10155, 2.5, 5, 7.5
10156, 5, 5, 7.5
10157, 7.5, 5, 7.5
10158, 10, 5, 7.5
10159, 12.5, 5, 7.5
10160, 15, 5, 7.5
10161, 17.5, 5, 7.5
10162, 20, 5, 7.5
10163, 0, 7.5, 7.5
10164, 2.5, 7.5, 7.5
10165, 5, 7.5, 7.5
10166, 7.5, 7.5, 7.5
10167, 10, 7.5, 7.5
10168, 12.5, 7.5, 7.5
10169, 15, 7.5, 7.5
10170, 17.5, 7.5, 7.5
10171, 20, 7.5, 7.5
10172, 0, 10, 7.5
10173, 2.5, 10, 7.5
10174, 5, 10, 7.5
10175, 7.5, 10, 7.5
10176, 10, 10, 7.5
10177, 12.5, 10, 7.5
10178, 15, 10, 7.5
10179, 17.5, 10, 7.5
10180, 20, 10, 7.5
10181, 0, 0, 10
10182, 2.5, 0, 10
10183, 5, 0, 10
10184, 7.5, 0, 10
10185, 10, 0, 10
10186, 12.5, 0, 10
10187, 15, 0, 10
10188, 17.5, 0, 10
10189, 20, 0, 10
10190, 0, 2.5, 10
10191, 2.5, 2.5, 10
10192, 5, 2.5, 10
10193, 7.5, 2.5, 10
10194, 10, 2.5, 10
10195, 12.5, 2.5, 10
10196, 15, 2.5, 10
10197, 17.5, 2.5, 10
10198, 20, 2.5, 10
10199, 0, 5, 10
10200, 2.5, 5, 10
10201, 5, 5, 10
10202, 7.5, 5, 10
10203, 10, 5, 10
10204, 12.5, 5, 10
10205, 15, 5, 10
10206, 17.5, 5, 10
10207, 20, 5, 10
10208, 0, 7.5, 10
10209, 2.5, 7.5, 10
10210, 5, 7.5, 10
10211, 7.5, 7.5, 10
10212, 10, 7.5, 10
10213, 12.5, 7.5, 10
10214, 15, 7.5, 10
10215, 17.5, 7.5, 10
10216, 20, 7.5, 10
10217, 0, 10, 10
10218, 2.5, 10, 10
10219, 5, 10, 10
10220, 7.5, 10, 10
10221, 10, 10, 10
10222, 12.5, 10, 10
10223, 15, 10, 10
10224, 17.5, 10, 10
10225, 20, 10, 10
*ELEMENT, TYPE=C3D8I, ELSET=EALL
10001, 10001, 10002, 10011, 10010, 10046, 10047, 10056, 10055
10002, 10002, 10003, 10012, 10011, 10047, 10048, 10057, 10056
10003, 10003, 10004, 10013, 10012, 10048, 10049, 10058, 10057
10004, 10004, 10005, 10014, 10013, 10049, 10050, 10059, 10058
10005, 10005, 10006, 10015, 10014, 10050, 10051, 10060, 10059
10006, 10006, 10007, 10016, 10015, 10051, 10052, 10061, 10060
10007, 10007, 10008, 10017, 10016, 10052, 10053, 10062, 10061
10008, 10008, 10009, 10018, 10017, 10053, 10054, 10063, 10062
10009, 10010, 10011, 10020, 10019, 10055, 10056, 10065, 10064
10010, 10011, 10012, 10021, 10020, 10056, 10057, 10066, 10065
10011, 10012, 10013, 10022, 10021, 10057, 10058, 10067, 10066
10012, 10013, 10014, 10023, 10022, 10058, 10059, 10068, 10067
10013, 10014, 10015, 10024, 10023, 10059, 10060, 10069, 10068
10014, 10015, 10016, 10025, 10024, 10060, 10061, 10070, 10069
10015, 10016, 10017, 10026, 10025, 10061, 10062, 10071, 10070
10016, 10017, 10018, 10027, 10026, 10062, 10063, 10072, 10071
10017, 10019, 10020, 10029, 10028, 10064, 10065, 10074, 10073
10018, 10020, 10021, 10030, 10029, 10065, 10066, 10075, 10074
10019, 10021, 10022, 10031, 10030, 10066, 10067, 10076, 10075
10020, 10022, 10023, 10032, 10031, 10067, 10068, 10077, 10076
10021, 10023, 10024, 10033, 10032, 10068, 10069, 10078, 10077
10022, 10024, 10025, 10034, 10033, 10069, 10070, 10079, 10078
10023, 10025, 10026, 10035, 10034, 10070, 10071, 10080, 10079
10024, 10026, 10027, 10036, 10035, 10071, 10072, 10081, 10080
10025, 10028, 10029, 10038, 10037, 10073, 10074, 10083, 10082
10026, 10029, 10030, 10039, 10038, 10074, 10075, 10084, 10083
10027, 10030, 10031, 10040, 10039, 10075, 10076, 10085, 10084
10028, 10031, 10032, 10041, 10040, 10076, 10077, 10086, 10085
10029, 10032, 10033, 10042, 10041, 10077, 10078, 10087, 10086
10030, 10033, 10034, 10043, 10042, 10078, 10079, 10088, 10087
10031, 10034, 10035, 10044, 10043, 10079, 10080, 10089, 10088
10032, 10035, 10036, 10045, 10044, 10080, 10081, 10090, 10089
10033, 10046, 10047, 10056, 10055, 10091, 10092, 10101, 10100
10034, 10047, 10048, 10057, 10056, 10092, 10093, 10102, 10101
10035, 10048, 10049, 10058, 10057, 10093, 10094, 10103, 10102
10036, 10049, 10050, 10059, 10058, 10094, 10095, 10104, 10103
10037, 10050, 10051, 10060, 10059, 10095, 10096, 10105, 10104
10038, 10051, 10052, 10061, 10060, 10096, 10097, 10106, 10105
10039, 10052, 10053, 10062, 10061, 10097, 10098, 10107, 10106
10040, 10053, 10054, 10063, 10062, 10098, 10099, 10108, 10107
10041, 10055, 10056, 10065, 10064, 10100, 10101, 10110, 10109
10042, 10056, 10057, 10066, 10065, 10101, 10102, 10111, 10110
10043, 10057, 10058, 10067, 10066, 10102, 10103, 10112, 10111
10044, 10058, 10059, 10068, 10067, 10103, 10104, 10113, 10112
10045, 10059, 10060, 10069, 10068, 10104, 10105, 10114, 10113
10046, 10060, 10061, 10070, 10069, 10105, 10106, 10115, 10114
10047, 10061, 10062, 10071, 10070, 10106, 10107, 10116, 10115
10048, 10062, 10063, 10072, 10071, 10107, 10108, 10117, 10116
10049, 10064, 10065, 10074, 10073, 10109, 10110, 10119, 10118
10050, 10065, 10066, 10075, 10074, 10110, 10111, 10120, 10119
10051, 10066, 10067, 10076, 10075, 10111, 10112, 10121, 10120
10052, 10067, 10068, 10077, 10076, 10112, 10113, 10122, 10121
10053, 10068, 10069, 10078, 10077, 10113, 10114, 10123, 10122
10054, 10069, 10070, 10079, 10078, 10114, 10115, 10124, 10123
10055, 10070, 10071, 10080, 10079, 10115, 10116, 10125, 10124
10056, 10071, 10072, 10081, 10080, 10116, 10117, 10126, 10125
10057, 10073, 10074, 10083, 10082, 10118, 10119, 10128, 10127
10058, 10074, 10075, 10084, 10083, 10119, 10120, 10129, 10128
10059, 10075, 10076, 10085, 10084, 10120, 10121, 10130, 10129
10060, 10076, 10077, 10086, 10085, 10121, 10122, 10131, 10130
10061, 10077, 10078, 10087, 10086, 10122, 10123, 10132, 10131
10062, 10078, 10079, 10088, 10087, 10123, 10124, 10133, 10132
10063, 10079, 10080, 10089, 10088, 10124, 10125, 10134, 10133
10064, 10080, 10081, 10090, 10089, 10125, 10126, 10135, 10134
10065, 10091, 10092, 10101, 10100, 10136, 10137, 10146, 10145
10066, 10092, 10093, 10102, 10101, 10137, 10138, 10147, 10146
10067, 10093, 10094, 10103, 10102, 10138, 10139, 10148, 10147
10068, 10094, 10095, 10104, 10103, 10139, 10140, 10149, 10148
10069, 10095, 10096, 10105, 10104, 10140, 10141, 10150, 10149
10070, 10096, 10097, 10106, 10105, 10141, 10142, 10151, 10150
10071, 10097, 10098, 10107, 10106, 10142, 10143, 10152, 10151
10072, 10098, 10099, 10108, 10107, 10143, 10144, 10153, 10152
10073, 10100, 10101, 10110, 10109, 10145, 10146, 10155, 10154
10074, 10101, 10102, 10111, 10110, 10146, 10147, 10156, 10155
10075, 10102, 10103, 10112, 10111, 10147, 10148, 10157, 10156
10076, 10103, 10104, 10113, 10112, 10148, 10149, 10158, 10157
10077, 10104, 10105, 10114, 10113, 10149, 10150, 10159, 10158
10078, 10105, 10106, 10115, 10114, 10150, 10151, 10160, 10159
10079, 10106, 10107, 10116, 10115, 10151, 10152, 10161, 10160
10080, 10107, 10108, 10117, 10116, 10152, 10153, 10162, 10161
10081, 10109, 10110, 10119, 10118, 10154, 10155, 10164, 10163
10082, 10110, 10111, 10120, 10119, 10155, 10156, 10165, 10164
10083, 10111, 10112, 10121, 10120, 10156, 10157, 10166, 10165
10084, 10112, 10113, 10122, 10121, 10157, 10158, 10167, 10166
10085, 10113, 10114, 10123, 10122, 10158, 10159, 10168, 10167
10086, 10114, 10115, 10124, 10123, 10159, 10160, 10169, 10168
10087, 10115, 10116, 10125, 10124, 10160, 10161, 10170, 10169
10088, 10116, 10117, 10126, 10125, 10161, 10162, 10171, 10170
10089, 10118, 10119, 10128, 10127, 10163, 10164, 10173, 10172
10090, 10119, 10120, 10129, 10128, 10164, 10165, 10174, 10173
10091, 10120, 10121, 10130, 10129, 10165, 10166, 10175, 10174
10092, 10121, 10122, 10131, 10130, 10166, 10167, 10176, 10175
10093, 10122, 10123, 10132, 10131, 10167, 10168, 10177, 10176
10094, 10123, 10124, 10133, 10132, 10168, 10169, 10178, 10177
10095, 10124, 10125, 10134, 10133, 10169, 10170, 10179, 10178
10096, 10125, 10126, 10135, 10134, 10170, 10171, 10180, 10179
10097, 10136, 10137, 10146, 10145, 10181, 10182, 10191, 10190
10098, 10137, 10138, 10147, 10146, 10182, 10183, 10192, 10191
10099, 10138, 10139, 10148, 10147, 10183, 10184, 10193, 10192
10100, 10139, 10140, 10149, 10148, 10184, 10185, 10194, 10193
10101, 10140, 10141, 10150, 10149, 10185, 10186, 10195, 10194
10102, 10141, 10142, 10151, 10150, 10186, 10187, 10196, 10195
10103, 10142, 10143, 10152, 10151, 10187, 10188, 10197, 10196
10104, 10143, 10144, 10153, 10152, 10188, 10189, 10198, 10197
10105, 10145, 10146, 10155, 10154, 10190, 10191, 10200, 10199
10106, 10146, 10147, 10156, 10155, 10191, 10192, 10201, 10200
10107, 10147, 10148, 10157, 10156, 10192, 10193, 10202, 10201
10108, 10148, 10149, 10158, 10157, 10193, 10194, 10203, 10202
10109, 10149, 10150, 10159, 10158, 10194, 10195, 10204, 10203
10110, 10150, 10151, 10160, 10159, 10195, 10196, 10205, 10204
10111, 10151, 10152, 10161, 10160, 10196, 10197, 10206, 10205
10112, 10152, 10153, 10162, 10161, 10197, 10198, 10207, 10206
10113, 10154, 10155, 10164, 10163, 10199, 10200, 10209, 10208
10114, 10155, 10156, 10165, 10164, 10200, 10201, 10210, 10209
10115, 10156, 10157, 10166, 10165, 10201, 10202, 10211, 10210
10116, 10157, 10158, 10167, 10166, 10202, 10203, 10212, 10211
10117, 10158, 10159, 10168, 10167, 10203, 10204, 10213, 10212
10118, 10159, 10160, 10169, 10168, 10204, 10205, 10214, 10213
10119, 10160, 10161, 10170, 10169, 10205, 10206, 10215, 10214
10120, 10161, 10162, 10171, 10170, 10206, 10207, 10216, 10215
10121, 10163, 10164, 10173, 10172, 10208, 10209, 10218, 10217
10122, 10164, 10165, 10174, 10173, 10209, 10210, 10219, 10218
10123, 10165, 10166, 10175, 10174, 10210, 10211, 10220, 10219
10124, 10166, 10167, 10176, 10175, 10211, 10212, 10221, 10220
10125, 10167, 10168, 10177, 10176, 10212, 10213, 10222, 10221
10126, 10168, 10169, 10178, 10177, 10213, 10214, 10223, 10222
10127, 10169, 10170, 10179, 10178, 10214, 10215, 10224, 10223
10128, 10170, 10171, 10180, 10179, 10215, 10216, 10225, 10224
*NSET, NSET=NFIX
10001, 10010, 10019, 10028, 10037, 10046, 10055, 10064, 10073, 10082, 10091, 10100
10109, 10118, 10127, 10136, 10145, 10154, 10163, 10172, 10181, 10190, 10199, 10208
10217
*NSET, NSET=NCUT
10009, 10018, 10027, 10036, 10045, 10054, 10063, 10072, 10081, 10090, 10099, 10108
10117, 10126, 10135, 10144, 10153, 10162, 10171, 10180, 10189, 10198, 10207, 10216
10225
*ELSET, ELSET=ECUT
10008, 10016, 10024, 10032, 10040, 10048, 10056, 10064, 10072, 10080, 10088, 10096
10104, 10112, 10120, 10128
*ELSET, ELSET=ETOP
10097, 10098, 10099, 10100, 10101, 10102, 10103, 10104, 10105, 10106, 10107, 10108
10109, 10110, 10111, 10112, 10113, 10114, 10115, 10116, 10117, 10118, 10119, 10120
10121, 10122, 10123, 10124, 10125, 10126, 10127, 10128
*SURFACE, NAME=SCUT, TYPE=ELEMENT
ECUT, S4
*SURFACE, NAME=STOP, TYPE=ELEMENT
ETOP, S2
*MATERIAL, NAME=STEEL
*ELASTIC
210000., 0.3
*SOLID SECTION, ELSET=EALL, MATERIAL=STEEL
*AMPLITUDE, NAME=RAMP
0., 0., 1., 1.
*AMPLITUDE, NAME=GROW, TIME=TOTAL TIME
0., 0., 1., 0.5, 2., 1., 3., 1.
*SUBMODEL, TYPE=NODE, INPUT=modelchange.frd
NCUT
*ELSET, ELSET=EGLOBAL
1, 2, 3, 4, 5, 6, 7, 8, 9, 10, 11, 12
13, 14, 15, 16, 17, 18, 19, 20, 21, 22, 23, 24
25, 26, 27, 28, 29, 30, 31, 32, 33, 34, 35, 36
37, 38, 39, 40, 41, 42, 43, 44, 45, 46, 47, 48
49, 50, 51, 52, 53, 54, 55, 56, 57, 58, 59, 60
61, 62, 63, 64, 65, 66, 67, 68, 69, 70, 71, 72
73, 74, 75, 76, 77, 78, 79, 80, 81, 82, 83, 84
85, 86, 87, 88, 89, 90, 91, 92, 93, 94, 95, 96
97, 98, 99, 100, 101, 102, 103, 104, 105, 106, 107, 108
109, 110, 111, 112
*SUBMODEL, TYPE=SURFACE, INPUT=modelchange.frd, GLOBAL ELSET=EGLOBAL
SCUT
*BOUNDARY
NFIX, 1, 3
*STEP
*STATIC
*BOUNDARY, SUBMODEL, STEP=1
NCUT, 1, 3
*DSLOAD, AMPLITUDE=GROW
STOP, P, 2.
*NODE FILE
U, RF
*EL FILE
S, E
*END STEP
*STEP
*STATIC
*BOUNDARY, OP=NEW
NFIX, 1, 3
*DSLOAD, SUBMODEL, STEP=1
SCUT, P
*NODE FILE
U, RF
*EL FILE
S, E
*END STEP
