*HEADING
ccxview symbols: every support, load, thermal load and constraint, one tile each
*NODE, NSET=NALL
1, 0, 0, 0
2, 10, 0, 0
3, 10, 10, 0
4, 0, 10, 0
5, 0, 0, 10
6, 10, 0, 10
7, 10, 10, 10
8, 0, 10, 10
9, 25, 0, 0
10, 35, 0, 0
11, 35, 10, 0
12, 25, 10, 0
13, 50, 0, 0
14, 60, 0, 0
15, 60, 10, 0
16, 50, 10, 0
17, 50, 0, 10
18, 60, 0, 10
19, 60, 10, 10
20, 50, 10, 10
21, 75, 0, 0
22, 85, 0, 0
23, 85, 10, 0
24, 75, 10, 0
25, 100, 0, 0
26, 110, 0, 0
27, 110, 10, 0
28, 100, 10, 0
29, 100, 0, 10
30, 110, 0, 10
31, 110, 10, 10
32, 100, 10, 10
33, 125, 0, 0
34, 135, 0, 0
35, 135, 10, 0
36, 125, 10, 0
37, 125, 0, 10
38, 135, 0, 10
39, 135, 10, 10
40, 125, 10, 10
41, 0, 30, 0
42, 10, 30, 0
43, 10, 40, 0
44, 0, 40, 0
45, 0, 30, 10
46, 10, 30, 10
47, 10, 40, 10
48, 0, 40, 10
49, 25, 35, 0
50, 25, 35, 5
51, 25, 35, 10
52, 50, 30, 0
53, 60, 30, 0
54, 60, 40, 0
55, 50, 40, 0
56, 50, 30, 10
57, 60, 30, 10
58, 60, 40, 10
59, 50, 40, 10
60, 75, 30, 0
61, 85, 30, 0
62, 85, 40, 0
63, 75, 40, 0
64, 75, 30, 10
65, 85, 30, 10
66, 85, 40, 10
67, 75, 40, 10
68, 100, 30, 0
69, 110, 30, 0
70, 110, 40, 0
71, 100, 40, 0
72, 125, 30, 0
73, 135, 30, 0
74, 135, 40, 0
75, 125, 40, 0
76, 150, 30, 0
77, 160, 30, 0
78, 160, 40, 0
79, 150, 40, 0
80, 150, 30, 10
81, 160, 30, 10
82, 160, 40, 10
83, 150, 40, 10
84, 175, 30, 0
85, 185, 30, 0
86, 185, 40, 0
87, 175, 40, 0
88, 175, 30, 10
89, 185, 30, 10
90, 185, 40, 10
91, 175, 40, 10
92, 200, 30, 0
93, 210, 30, 0
94, 210, 40, 0
95, 200, 40, 0
96, 200, 30, 10
97, 210, 30, 10
98, 210, 40, 10
99, 200, 40, 10
100, 225, 30, 0
101, 235, 30, 0
102, 235, 40, 0
103, 225, 40, 0
104, 225, 30, 5
105, 235, 30, 5
106, 235, 40, 5
107, 225, 40, 5
108, 225, 30, 10
109, 235, 30, 10
110, 235, 40, 10
111, 225, 40, 10
112, 230, 35, 16
113, 250, 30, 0
114, 260, 30, 0
115, 260, 40, 0
116, 250, 40, 0
117, 250, 30, 5
118, 260, 30, 5
119, 260, 40, 5
120, 250, 40, 5
121, 250, 30, 10
122, 260, 30, 10
123, 260, 40, 10
124, 250, 40, 10
125, 255, 35, 16
126, 0, 60, 0
127, 10, 60, 0
128, 10, 70, 0
129, 0, 70, 0
130, 0, 60, 10
131, 10, 60, 10
132, 10, 70, 10
133, 0, 70, 10
134, 25, 60, 0
135, 35, 60, 0
136, 35, 70, 0
137, 25, 70, 0
138, 25, 60, 10
139, 35, 60, 10
140, 35, 70, 10
141, 25, 70, 10
142, 50, 60, 0
143, 60, 60, 0
144, 60, 70, 0
145, 50, 70, 0
146, 50, 60, 10
147, 60, 60, 10
148, 60, 70, 10
149, 50, 70, 10
150, 75, 60, 0
151, 85, 60, 0
152, 85, 70, 0
153, 75, 70, 0
154, 75, 60, 10
155, 85, 60, 10
156, 85, 70, 10
157, 75, 70, 10
158, 100, 60, 0
159, 110, 60, 0
160, 110, 70, 0
161, 100, 70, 0
162, 100, 60, 10
163, 110, 60, 10
164, 110, 70, 10
165, 100, 70, 10
166, 125, 60, 0
167, 135, 60, 0
168, 135, 70, 0
169, 125, 70, 0
170, 125, 60, 10
171, 135, 60, 10
172, 135, 70, 10
173, 125, 70, 10
174, 0, 90, 0
175, 10, 90, 0
176, 10, 100, 0
177, 0, 100, 0
178, 0, 90, 10
179, 10, 90, 10
180, 10, 100, 10
181, 0, 100, 10
182, 5, 95, 15
183, 25, 90, 0
184, 35, 90, 0
185, 35, 100, 0
186, 25, 100, 0
187, 25, 90, 10
188, 35, 90, 10
189, 35, 100, 10
190, 25, 100, 10
191, 30, 95, 15
192, 50, 90, 0
193, 60, 90, 0
194, 60, 100, 0
195, 50, 100, 0
196, 50, 90, 10
197, 60, 90, 10
198, 60, 100, 10
199, 50, 100, 10
200, 55, 95, 15
201, 75, 90, 0
202, 85, 90, 0
203, 85, 100, 0
204, 75, 100, 0
205, 75, 90, 10
206, 85, 90, 10
207, 85, 100, 10
208, 75, 100, 10
209, 100, 90, 0
210, 110, 90, 0
211, 110, 100, 0
212, 100, 100, 0
213, 100, 90, 10
214, 110, 90, 10
215, 110, 100, 10
216, 100, 100, 10
217, 125, 90, 0
218, 135, 90, 0
219, 135, 100, 0
220, 125, 100, 0
221, 125, 90, 5
222, 135, 90, 5
223, 135, 100, 5
224, 125, 100, 5
225, 125, 90, 5
226, 135, 90, 5
227, 135, 100, 5
228, 125, 100, 5
229, 125, 90, 10
230, 135, 90, 10
231, 135, 100, 10
232, 125, 100, 10
233, 150, 90, 0
234, 160, 90, 0
235, 160, 100, 0
236, 150, 100, 0
237, 150, 90, 5
238, 160, 90, 5
239, 160, 100, 5
240, 150, 100, 5
241, 150, 90, 4.999
242, 160, 90, 4.999
243, 160, 100, 4.999
244, 150, 100, 4.999
245, 150, 90, 9.999
246, 160, 90, 9.999
247, 160, 100, 9.999
248, 150, 100, 9.999
249, 175, 90, 0
250, 178, 90, 0
251, 181, 90, 0
252, 184, 90, 0
253, 175, 90, 10
254, 178, 90, 10
255, 181, 90, 10
256, 184, 90, 10
*ELEMENT, TYPE=C3D8, ELSET=S1_HELD
1, 1, 2, 3, 4, 5, 6, 7, 8
*ELEMENT, TYPE=S4, ELSET=S2_HELD_ROTATIONS
2, 9, 10, 11, 12
*ELEMENT, TYPE=C3D8, ELSET=S3_PRESCRIBED_DISPLACEMENT
3, 13, 14, 15, 16, 17, 18, 19, 20
*ELEMENT, TYPE=S4, ELSET=S4_PRESCRIBED_ROTATION
4, 21, 22, 23, 24
*ELEMENT, TYPE=C3D8, ELSET=S5_HELD_TEMPERATURE
5, 25, 26, 27, 28, 29, 30, 31, 32
*ELEMENT, TYPE=C3D8, ELSET=S6_CYLINDRICAL_TRANSFORM
6, 33, 34, 35, 36, 37, 38, 39, 40
*ELEMENT, TYPE=C3D8, ELSET=L1_FORCE
7, 41, 42, 43, 44, 45, 46, 47, 48
*ELEMENT, TYPE=B31, ELSET=L2_MOMENT
8, 49, 50
9, 50, 51
*ELEMENT, TYPE=C3D8, ELSET=L3_PRESSURE
10, 52, 53, 54, 55, 56, 57, 58, 59
*ELEMENT, TYPE=C3D8, ELSET=L4_SURFACE_PRESSURE
11, 60, 61, 62, 63, 64, 65, 66, 67
*ELEMENT, TYPE=S4, ELSET=L5_SHELL_EDGE_LOAD
12, 68, 69, 70, 71
*ELEMENT, TYPE=CPS4, ELSET=L6_PLANE_EDGE_PRESSURE
13, 72, 73, 74, 75
*ELEMENT, TYPE=C3D8, ELSET=L7_GRAVITY
14, 76, 77, 78, 79, 80, 81, 82, 83
*ELEMENT, TYPE=C3D8, ELSET=L8_CENTRIFUGAL
15, 84, 85, 86, 87, 88, 89, 90, 91
*ELEMENT, TYPE=C3D8, ELSET=L9_GRAVITY_SIDEWAYS
16, 92, 93, 94, 95, 96, 97, 98, 99
*ELEMENT, TYPE=C3D8, ELSET=L10_BOLT
17, 100, 101, 102, 103, 104, 105, 106, 107
18, 104, 105, 106, 107, 108, 109, 110, 111
*ELEMENT, TYPE=C3D8, ELSET=L11_BOLT
19, 113, 114, 115, 116, 117, 118, 119, 120
20, 117, 118, 119, 120, 121, 122, 123, 124
*ELEMENT, TYPE=C3D8, ELSET=T1_NODE_HEAT
21, 126, 127, 128, 129, 130, 131, 132, 133
*ELEMENT, TYPE=C3D8, ELSET=T2_SURFACE_HEAT
22, 134, 135, 136, 137, 138, 139, 140, 141
*ELEMENT, TYPE=C3D8, ELSET=T3_FILM
23, 142, 143, 144, 145, 146, 147, 148, 149
*ELEMENT, TYPE=C3D8, ELSET=T4_RADIATION
24, 150, 151, 152, 153, 154, 155, 156, 157
*ELEMENT, TYPE=C3D8, ELSET=T5_GIVEN_TEMPERATURE
25, 158, 159, 160, 161, 162, 163, 164, 165
*ELEMENT, TYPE=C3D8, ELSET=T6_BODY_HEAT
26, 166, 167, 168, 169, 170, 171, 172, 173
*ELEMENT, TYPE=C3D8, ELSET=C1_RIGID_BODY
27, 174, 175, 176, 177, 178, 179, 180, 181
*ELEMENT, TYPE=C3D8, ELSET=C2_KINEMATIC_COUPLING
28, 183, 184, 185, 186, 187, 188, 189, 190
*ELEMENT, TYPE=C3D8, ELSET=C3_DISTRIBUTING_COUPLING
29, 192, 193, 194, 195, 196, 197, 198, 199
*ELEMENT, TYPE=C3D8, ELSET=C4_EQUATION
30, 201, 202, 203, 204, 205, 206, 207, 208
*ELEMENT, TYPE=C3D8, ELSET=C5_MPC_BEAM
31, 209, 210, 211, 212, 213, 214, 215, 216
*ELEMENT, TYPE=C3D8, ELSET=C6_TIE
32, 217, 218, 219, 220, 221, 222, 223, 224
33, 225, 226, 227, 228, 229, 230, 231, 232
*ELEMENT, TYPE=C3D8, ELSET=C7_CONTACT
34, 233, 234, 235, 236, 237, 238, 239, 240
35, 241, 242, 243, 244, 245, 246, 247, 248
*ELEMENT, TYPE=SPRINGA, ELSET=C8_SPRING
36, 249, 253
38, 250, 254
40, 251, 255
41, 252, 256
*ELEMENT, TYPE=DASHPOTA, ELSET=C9_DASHPOT
37, 250, 254
*ELEMENT, TYPE=GAPUNI, ELSET=C10_GAP
39, 251, 255
*ELEMENT, TYPE=MASS, ELSET=C11_MASS
42, 256
*NSET, NSET=NTFIX
29, 30, 31, 32
*NSET, NSET=NCYL
33, 34, 35, 36, 37, 38, 39, 40
*NSET, NSET=NHOT
162, 163, 164, 165
*NSET, NSET=NRIGID
178, 179, 180, 181
*MATERIAL, NAME=STEEL
*ELASTIC
210000., 0.3
*DENSITY
7.85e-9
*EXPANSION
1.2e-5
*CONDUCTIVITY
50.
*SPECIFIC HEAT
4.6e8
*SOLID SECTION, ELSET=C1_RIGID_BODY, MATERIAL=STEEL
*SOLID SECTION, ELSET=C2_KINEMATIC_COUPLING, MATERIAL=STEEL
*SOLID SECTION, ELSET=C3_DISTRIBUTING_COUPLING, MATERIAL=STEEL
*SOLID SECTION, ELSET=C4_EQUATION, MATERIAL=STEEL
*SOLID SECTION, ELSET=C5_MPC_BEAM, MATERIAL=STEEL
*SOLID SECTION, ELSET=C6_TIE, MATERIAL=STEEL
*SOLID SECTION, ELSET=C7_CONTACT, MATERIAL=STEEL
*SOLID SECTION, ELSET=L10_BOLT, MATERIAL=STEEL
*SOLID SECTION, ELSET=L11_BOLT, MATERIAL=STEEL
*SOLID SECTION, ELSET=L1_FORCE, MATERIAL=STEEL
*SOLID SECTION, ELSET=L3_PRESSURE, MATERIAL=STEEL
*SOLID SECTION, ELSET=L4_SURFACE_PRESSURE, MATERIAL=STEEL
*SOLID SECTION, ELSET=L7_GRAVITY, MATERIAL=STEEL
*SOLID SECTION, ELSET=L8_CENTRIFUGAL, MATERIAL=STEEL
*SOLID SECTION, ELSET=L9_GRAVITY_SIDEWAYS, MATERIAL=STEEL
*SOLID SECTION, ELSET=S1_HELD, MATERIAL=STEEL
*SOLID SECTION, ELSET=S3_PRESCRIBED_DISPLACEMENT, MATERIAL=STEEL
*SOLID SECTION, ELSET=S5_HELD_TEMPERATURE, MATERIAL=STEEL
*SOLID SECTION, ELSET=S6_CYLINDRICAL_TRANSFORM, MATERIAL=STEEL
*SOLID SECTION, ELSET=T1_NODE_HEAT, MATERIAL=STEEL
*SOLID SECTION, ELSET=T2_SURFACE_HEAT, MATERIAL=STEEL
*SOLID SECTION, ELSET=T3_FILM, MATERIAL=STEEL
*SOLID SECTION, ELSET=T4_RADIATION, MATERIAL=STEEL
*SOLID SECTION, ELSET=T5_GIVEN_TEMPERATURE, MATERIAL=STEEL
*SOLID SECTION, ELSET=T6_BODY_HEAT, MATERIAL=STEEL
*SHELL SECTION, ELSET=L5_SHELL_EDGE_LOAD, MATERIAL=STEEL
1.
*SHELL SECTION, ELSET=S2_HELD_ROTATIONS, MATERIAL=STEEL
1.
*SHELL SECTION, ELSET=S4_PRESCRIBED_ROTATION, MATERIAL=STEEL
1.
*SOLID SECTION, ELSET=L6_PLANE_EDGE_PRESSURE, MATERIAL=STEEL
1.
*BEAM SECTION, ELSET=L2_MOMENT, MATERIAL=STEEL, SECTION=RECT
2., 2.
1., 0., 0.
*INITIAL CONDITIONS, TYPE=TEMPERATURE
NALL, 293.
*PHYSICAL CONSTANTS, ABSOLUTE ZERO=0., STEFAN BOLTZMANN=5.669e-11
*BOUNDARY
1, 1, 3
2, 1, 3
3, 1, 3
4, 1, 3
*BOUNDARY
9, 1, 6
10, 1, 6
*BOUNDARY
13, 1, 3
14, 1, 3
15, 1, 3
16, 1, 3
*BOUNDARY
21, 1, 6
24, 1, 6
*BOUNDARY
25, 1, 3
26, 1, 3
27, 1, 3
28, 1, 3
*BOUNDARY
NTFIX, 11, 11, 350.
*TRANSFORM, NSET=NCYL, TYPE=C
130.0, 5.0, 0., 130.0, 5.0, 1.
*BOUNDARY
33, 2, 3
34, 2, 3
35, 2, 3
36, 2, 3
33, 1, 1
*BOUNDARY
41, 1, 3
42, 1, 3
43, 1, 3
44, 1, 3
*BOUNDARY
49, 1, 6
*BOUNDARY
52, 1, 3
53, 1, 3
54, 1, 3
55, 1, 3
*BOUNDARY
60, 1, 3
61, 1, 3
62, 1, 3
63, 1, 3
*SURFACE, NAME=SPRESS
11, S2
11, S3
*BOUNDARY
68, 1, 6
71, 1, 6
*BOUNDARY
72, 1, 2
75, 1, 2
*BOUNDARY
76, 1, 3
77, 1, 3
78, 1, 3
79, 1, 3
*BOUNDARY
84, 1, 3
85, 1, 3
86, 1, 3
87, 1, 3
*BOUNDARY
92, 1, 3
93, 1, 3
94, 1, 3
95, 1, 3
*BOUNDARY
100, 1, 3
101, 1, 3
102, 1, 3
103, 1, 3
*BOUNDARY
108, 1, 3
109, 1, 3
110, 1, 3
111, 1, 3
*SURFACE, NAME=SCUT0
17, S2
*PRE-TENSION SECTION, SURFACE=SCUT0, NODE=112
0., 0., 1.
*BOUNDARY
113, 1, 3
114, 1, 3
115, 1, 3
116, 1, 3
*BOUNDARY
121, 1, 3
122, 1, 3
123, 1, 3
124, 1, 3
*SURFACE, NAME=SCUT1
19, S2
*PRE-TENSION SECTION, SURFACE=SCUT1, NODE=125
0., 0., 1.
*BOUNDARY
126, 1, 3
127, 1, 3
128, 1, 3
129, 1, 3
*BOUNDARY
134, 1, 3
135, 1, 3
136, 1, 3
137, 1, 3
*BOUNDARY
142, 1, 3
143, 1, 3
144, 1, 3
145, 1, 3
*BOUNDARY
150, 1, 3
151, 1, 3
152, 1, 3
153, 1, 3
*BOUNDARY
158, 1, 3
159, 1, 3
160, 1, 3
161, 1, 3
*BOUNDARY
166, 1, 3
167, 1, 3
168, 1, 3
169, 1, 3
*BOUNDARY
174, 1, 3
175, 1, 3
176, 1, 3
177, 1, 3
*RIGID BODY, NSET=NRIGID, REF NODE=182
*BOUNDARY
183, 1, 3
184, 1, 3
185, 1, 3
186, 1, 3
*SURFACE, NAME=SKIN
28, S2
*COUPLING, REF NODE=191, SURFACE=SKIN, CONSTRAINT NAME=KIN
*KINEMATIC
1, 3
*BOUNDARY
192, 1, 3
193, 1, 3
194, 1, 3
195, 1, 3
*SURFACE, NAME=SDIS
29, S2
*COUPLING, REF NODE=200, SURFACE=SDIS, CONSTRAINT NAME=DIS
*DISTRIBUTING
1, 3
*BOUNDARY
201, 1, 3
202, 1, 3
203, 1, 3
204, 1, 3
*BOUNDARY
209, 1, 3
210, 1, 3
211, 1, 3
212, 1, 3
*EQUATION
2
206, 3, 1., 213, 3, -1.
*MPC
BEAM, 207, 216
*BOUNDARY
217, 1, 3
218, 1, 3
219, 1, 3
220, 1, 3
*SURFACE, NAME=TIE_M
32, S2
*SURFACE, NAME=TIE_S
33, S1
*TIE, NAME=TIE1, POSITION TOLERANCE=0.1
TIE_S, TIE_M
*BOUNDARY
233, 1, 3
234, 1, 3
235, 1, 3
236, 1, 3
*BOUNDARY
241, 1, 2
242, 1, 2
243, 1, 2
244, 1, 2
245, 1, 2
246, 1, 2
247, 1, 2
248, 1, 2
*SURFACE, NAME=CON_M
34, S2
*SURFACE, NAME=CON_S, TYPE=NODE
241
242
243
244
*CONTACT PAIR, INTERACTION=TOUCH, TYPE=NODE TO SURFACE
CON_S, CON_M
*SURFACE INTERACTION, NAME=TOUCH
*SURFACE BEHAVIOR, PRESSURE-OVERCLOSURE=LINEAR
1.e4
*BOUNDARY
249, 1, 3
250, 1, 3
251, 1, 3
252, 1, 3
*BOUNDARY
253, 1, 2
254, 1, 2
255, 1, 2
256, 1, 2
*BOUNDARY
249, 11, 11, 293.
250, 11, 11, 293.
251, 11, 11, 293.
252, 11, 11, 293.
253, 11, 11, 293.
254, 11, 11, 293.
255, 11, 11, 293.
256, 11, 11, 293.
*SPRING, ELSET=C8_SPRING

100.
*DASHPOT, ELSET=C9_DASHPOT

1.
*GAP, ELSET=C10_GAP
5., 0., 0., 1.
*MASS, ELSET=C11_MASS
1.e-6
*STEP
*HEAT TRANSFER
1., 1.
*CFLUX
132, 11, 0.5
130, 11, -0.25
*DFLUX
22, S2, 0.02
22, S4, -0.01
*FILM
23, F2, 293., 0.001
23, F4, 293., 0.0005
*RADIATE
24, R2, 293., 0.8
*DFLUX
T6_BODY_HEAT, BF, 0.001
*NODE FILE
U, NT, RF
*EL FILE
S, E, HFL
*END STEP
*STEP
*STATIC
*CLOAD
11, 3, -2.
*BOUNDARY
17, 3, 3, 0.02
18, 3, 3, 0.02
19, 3, 3, 0.02
20, 3, 3, 0.02
*BOUNDARY
22, 5, 5, 0.002
23, 5, 5, 0.002
*CLOAD
37, 1, 5.
38, 1, 5.
39, 1, 5.
40, 1, 5.
*CLOAD
47, 1, 10.
48, 3, -5.
*CLOAD
51, 1, 2.
51, 5, 40.
51, 6, -20.
*DLOAD
10, P2, 1.
10, P4, 0.5
*DSLOAD
SPRESS, P, 0.8
*DLOAD
12, EDNOR2, 0.5
*DLOAD
13, P2, 0.5
*DLOAD
L7_GRAVITY, GRAV, 9810., 0., 0., -1.
*DLOAD
L8_CENTRIFUGAL, CENTRIF, 1.e4, 180.0, 35.0, 0., 0., 0., 1.
*DLOAD
L9_GRAVITY_SIDEWAYS, GRAV, 4000., 1., 0., 0.
*CLOAD
112, 1, 50.0
*CLOAD
125, 1, 100.0
*TEMPERATURE
NHOT, 393.
*CLOAD
182, 1, 5.
*CLOAD
191, 2, 5.
*CLOAD
200, 3, -5.
*CLOAD
206, 3, 5.
*CLOAD
231, 1, 5.
*DLOAD
35, P2, 0.2
*CLOAD
253, 3, 1.
254, 3, 1.
255, 3, 1.
256, 3, 1.
*NODE FILE
U, NT, RF
*EL FILE
S, E, HFL
*END STEP
*STEP
*STATIC
*CLOAD, OP=NEW
47, 1, -20.
*DLOAD
7, P2, 1.
*NODE FILE
U, NT, RF
*EL FILE
S, E, HFL
*END STEP
